 Entering Gaussian System, Link 0=/opt/g16/g16
 Initial command:
 /opt/g16/l1.exe "/home/avrubio/scratches/g16/4126/Gau-2452787.inp" -scrdir="/home/avrubio/scratches/g16/4126/"
 Entering Link 1 = /opt/g16/l1.exe PID=   2452789.
  
 Copyright (c) 1988-2019, Gaussian, Inc.  All Rights Reserved.
  
 This is part of the Gaussian(R) 16 program.  It is based on
 the Gaussian(R) 09 system (copyright 2009, Gaussian, Inc.),
 the Gaussian(R) 03 system (copyright 2003, Gaussian, Inc.),
 the Gaussian(R) 98 system (copyright 1998, Gaussian, Inc.),
 the Gaussian(R) 94 system (copyright 1995, Gaussian, Inc.),
 the Gaussian 92(TM) system (copyright 1992, Gaussian, Inc.),
 the Gaussian 90(TM) system (copyright 1990, Gaussian, Inc.),
 the Gaussian 88(TM) system (copyright 1988, Gaussian, Inc.),
 the Gaussian 86(TM) system (copyright 1986, Carnegie Mellon
 University), and the Gaussian 82(TM) system (copyright 1983,
 Carnegie Mellon University). Gaussian is a federally registered
 trademark of Gaussian, Inc.
  
 This software contains proprietary and confidential information,
 including trade secrets, belonging to Gaussian, Inc.
  
 This software is provided under written license and may be
 used, copied, transmitted, or stored only in accord with that
 written license.
  
 The following legend is applicable only to US Government
 contracts under FAR:
  
                    RESTRICTED RIGHTS LEGEND
  
 Use, reproduction and disclosure by the US Government is
 subject to restrictions as set forth in subparagraphs (a)
 and (c) of the Commercial Computer Software - Restricted
 Rights clause in FAR 52.227-19.
  
 Gaussian, Inc.
 340 Quinnipiac St., Bldg. 40, Wallingford CT 06492
  
  
 ---------------------------------------------------------------
 Warning -- This program may not be used in any manner that
 competes with the business of Gaussian, Inc. or will provide
 assistance to any competitor of Gaussian, Inc.  The licensee
 of this program is prohibited from giving any competitor of
 Gaussian, Inc. access to this program.  By using this program,
 the user acknowledges that Gaussian, Inc. is engaged in the
 business of creating and licensing software in the field of
 computational chemistry and represents and warrants to the
 licensee that it is not a competitor of Gaussian, Inc. and that
 it will not use this program in any manner prohibited above.
 ---------------------------------------------------------------
  

 Cite this work as:
 Gaussian 16, Revision C.01,
 M. J. Frisch, G. W. Trucks, H. B. Schlegel, G. E. Scuseria, 
 M. A. Robb, J. R. Cheeseman, G. Scalmani, V. Barone, 
 G. A. Petersson, H. Nakatsuji, X. Li, M. Caricato, A. V. Marenich, 
 J. Bloino, B. G. Janesko, R. Gomperts, B. Mennucci, H. P. Hratchian, 
 J. V. Ortiz, A. F. Izmaylov, J. L. Sonnenberg, D. Williams-Young, 
 F. Ding, F. Lipparini, F. Egidi, J. Goings, B. Peng, A. Petrone, 
 T. Henderson, D. Ranasinghe, V. G. Zakrzewski, J. Gao, N. Rega, 
 G. Zheng, W. Liang, M. Hada, M. Ehara, K. Toyota, R. Fukuda, 
 J. Hasegawa, M. Ishida, T. Nakajima, Y. Honda, O. Kitao, H. Nakai, 
 T. Vreven, K. Throssell, J. A. Montgomery, Jr., J. E. Peralta, 
 F. Ogliaro, M. J. Bearpark, J. J. Heyd, E. N. Brothers, K. N. Kudin, 
 V. N. Staroverov, T. A. Keith, R. Kobayashi, J. Normand, 
 K. Raghavachari, A. P. Rendell, J. C. Burant, S. S. Iyengar, 
 J. Tomasi, M. Cossi, J. M. Millam, M. Klene, C. Adamo, R. Cammi, 
 J. W. Ochterski, R. L. Martin, K. Morokuma, O. Farkas, 
 J. B. Foresman, and D. J. Fox, Gaussian, Inc., Wallingford CT, 2019.
 
 ******************************************
 Gaussian 16:  ES64L-G16RevC.01  3-Jul-2019
                11-Sep-2026 
 ******************************************
 %nprocshared=24
 Will use up to   24 processors via shared memory.
 %mem=48GB
 ----------------------------------------------------------------------
 # opt=(noeigen,ts,calcfc) freq=(hpmodes,noraman) wb97xd/6-31G* int=ult
 rafine
 ----------------------------------------------------------------------
 1/5=1,10=4,11=1,18=20,26=4,38=1/1,3;
 2/9=110,12=2,17=6,18=5,40=1/2;
 3/5=1,6=6,7=1,11=2,25=1,30=1,71=2,74=-58,75=-5,140=1/1,2,3;
 4//1;
 5/5=2,38=5/2;
 8/6=4,10=90,11=11/1;
 11/6=1,8=1,9=11,15=111,16=1/1,2,10;
 10/6=1,13=1/2;
 6/7=2,8=2,9=2,10=2,28=1/1;
 7/10=1,25=1/1,2,3,16;
 1/5=1,10=4,11=1,18=20,26=4/3(2);
 2/9=110/2;
 99//99;
 2/9=110/2;
 3/5=1,6=6,7=1,11=2,25=1,30=1,71=1,74=-58,75=-5/1,2,3;
 4/5=5,16=3,69=1/1;
 5/5=2,38=5/2;
 7//1,2,3,16;
 1/5=1,11=1,18=20,26=4/3(-5);
 2/9=110/2;
 6/7=2,8=2,9=2,10=2,19=2,28=1/1;
 99/9=1/99;
 -----
 DA_ts
 -----
 Symbolic Z-matrix:
 Charge =  0 Multiplicity = 1
 C                    -1.19769  -0.35234  -2.52011 
 C                    -2.42451  -0.06502  -1.97611 
 C                    -2.62345  -0.0641   -0.58831 
 C                    -1.599    -0.34628   0.28036 
 C                     0.06795   1.22978  -1.60861 
 C                    -0.1379    1.24258  -0.24693 
 H                    -0.52771  -1.04708  -2.03479 
 H                    -1.03454  -0.22818  -3.58327 
 H                    -3.18704   0.37958  -2.60564 
 H                    -3.5326    0.38139  -0.19999 
 H                    -1.74261  -0.2211    1.34603 
 H                    -0.81365  -1.03412   0.00374 
 H                     0.59578   0.79695   0.41153 
 H                    -0.76071   2.00283   0.20055 
 H                     0.96131   0.77111  -2.01157 
 H                    -0.3862    1.98617  -2.23104 
 
 Add virtual bond connecting atoms C5         and C1         Dist= 4.20D+00.
 Add virtual bond connecting atoms C6         and C4         Dist= 4.20D+00.
 Add virtual bond connecting atoms H13        and H12        Dist= 4.43D+00.
 Add virtual bond connecting atoms H15        and H7         Dist= 4.44D+00.

 GradGradGradGradGradGradGradGradGradGradGradGradGradGradGradGradGradGrad
 Berny optimization.
 Initialization pass.
                           ----------------------------
                           !    Initial Parameters    !
                           ! (Angstroms and Degrees)  !
 --------------------------                            --------------------------
 ! Name  Definition              Value          Derivative Info.                !
 --------------------------------------------------------------------------------
 ! R1    R(1,2)                  1.3724         calculate D2E/DX2 analytically  !
 ! R2    R(1,5)                  2.2217         calculate D2E/DX2 analytically  !
 ! R3    R(1,7)                  1.0803         calculate D2E/DX2 analytically  !
 ! R4    R(1,8)                  1.0828         calculate D2E/DX2 analytically  !
 ! R5    R(2,3)                  1.402          calculate D2E/DX2 analytically  !
 ! R6    R(2,9)                  1.0842         calculate D2E/DX2 analytically  !
 ! R7    R(3,4)                  1.3725         calculate D2E/DX2 analytically  !
 ! R8    R(3,10)                 1.0843         calculate D2E/DX2 analytically  !
 ! R9    R(4,6)                  2.222          calculate D2E/DX2 analytically  !
 ! R10   R(4,11)                 1.0826         calculate D2E/DX2 analytically  !
 ! R11   R(4,12)                 1.08           calculate D2E/DX2 analytically  !
 ! R12   R(5,6)                  1.3772         calculate D2E/DX2 analytically  !
 ! R13   R(5,15)                 1.0821         calculate D2E/DX2 analytically  !
 ! R14   R(5,16)                 1.0797         calculate D2E/DX2 analytically  !
 ! R15   R(6,13)                 1.0819         calculate D2E/DX2 analytically  !
 ! R16   R(6,14)                 1.0799         calculate D2E/DX2 analytically  !
 ! R17   R(7,15)                 2.3502         calculate D2E/DX2 analytically  !
 ! R18   R(12,13)                2.3464         calculate D2E/DX2 analytically  !
 ! A1    A(2,1,5)              101.3921         calculate D2E/DX2 analytically  !
 ! A2    A(2,1,7)              120.7266         calculate D2E/DX2 analytically  !
 ! A3    A(2,1,8)              119.9929         calculate D2E/DX2 analytically  !
 ! A4    A(5,1,7)               85.4314         calculate D2E/DX2 analytically  !
 ! A5    A(5,1,8)              103.6125         calculate D2E/DX2 analytically  !
 ! A6    A(7,1,8)              114.9236         calculate D2E/DX2 analytically  !
 ! A7    A(1,2,3)              121.2884         calculate D2E/DX2 analytically  !
 ! A8    A(1,2,9)              118.9731         calculate D2E/DX2 analytically  !
 ! A9    A(3,2,9)              118.3407         calculate D2E/DX2 analytically  !
 ! A10   A(2,3,4)              121.363          calculate D2E/DX2 analytically  !
 ! A11   A(2,3,10)             118.2766         calculate D2E/DX2 analytically  !
 ! A12   A(4,3,10)             118.9234         calculate D2E/DX2 analytically  !
 ! A13   A(3,4,6)              101.1635         calculate D2E/DX2 analytically  !
 ! A14   A(3,4,11)             120.0161         calculate D2E/DX2 analytically  !
 ! A15   A(3,4,12)             120.7713         calculate D2E/DX2 analytically  !
 ! A16   A(6,4,11)             103.7772         calculate D2E/DX2 analytically  !
 ! A17   A(6,4,12)              85.2088         calculate D2E/DX2 analytically  !
 ! A18   A(11,4,12)            114.9761         calculate D2E/DX2 analytically  !
 ! A19   A(1,5,6)              109.094          calculate D2E/DX2 analytically  !
 ! A20   A(1,5,15)              90.8987         calculate D2E/DX2 analytically  !
 ! A21   A(1,5,16)              91.3033         calculate D2E/DX2 analytically  !
 ! A22   A(6,5,15)             119.706          calculate D2E/DX2 analytically  !
 ! A23   A(6,5,16)             120.039          calculate D2E/DX2 analytically  !
 ! A24   A(15,5,16)            115.4382         calculate D2E/DX2 analytically  !
 ! A25   A(4,6,5)              109.0423         calculate D2E/DX2 analytically  !
 ! A26   A(4,6,13)              90.3989         calculate D2E/DX2 analytically  !
 ! A27   A(4,6,14)              91.4803         calculate D2E/DX2 analytically  !
 ! A28   A(5,6,13)             119.7735         calculate D2E/DX2 analytically  !
 ! A29   A(5,6,14)             120.1634         calculate D2E/DX2 analytically  !
 ! A30   A(13,6,14)            115.3983         calculate D2E/DX2 analytically  !
 ! A31   A(1,7,15)              84.2522         calculate D2E/DX2 analytically  !
 ! A32   A(4,12,13)             83.9886         calculate D2E/DX2 analytically  !
 ! A33   A(6,13,12)             78.9484         calculate D2E/DX2 analytically  !
 ! A34   A(5,15,7)              78.9614         calculate D2E/DX2 analytically  !
 ! D1    D(5,1,2,3)            -59.2492         calculate D2E/DX2 analytically  !
 ! D2    D(5,1,2,9)            107.0317         calculate D2E/DX2 analytically  !
 ! D3    D(7,1,2,3)             32.1972         calculate D2E/DX2 analytically  !
 ! D4    D(7,1,2,9)           -161.5219         calculate D2E/DX2 analytically  !
 ! D5    D(8,1,2,3)           -172.4219         calculate D2E/DX2 analytically  !
 ! D6    D(8,1,2,9)             -6.141          calculate D2E/DX2 analytically  !
 ! D7    D(2,1,5,6)             50.2722         calculate D2E/DX2 analytically  !
 ! D8    D(2,1,5,15)           172.2706         calculate D2E/DX2 analytically  !
 ! D9    D(2,1,5,16)           -72.2582         calculate D2E/DX2 analytically  !
 ! D10   D(7,1,5,6)            -70.1768         calculate D2E/DX2 analytically  !
 ! D11   D(7,1,5,15)            51.8216         calculate D2E/DX2 analytically  !
 ! D12   D(7,1,5,16)           167.2928         calculate D2E/DX2 analytically  !
 ! D13   D(8,1,5,6)            175.2648         calculate D2E/DX2 analytically  !
 ! D14   D(8,1,5,15)           -62.7368         calculate D2E/DX2 analytically  !
 ! D15   D(8,1,5,16)            52.7344         calculate D2E/DX2 analytically  !
 ! D16   D(2,1,7,15)          -121.8734         calculate D2E/DX2 analytically  !
 ! D17   D(5,1,7,15)           -21.3279         calculate D2E/DX2 analytically  !
 ! D18   D(8,1,7,15)            81.5703         calculate D2E/DX2 analytically  !
 ! D19   D(1,2,3,4)              0.2019         calculate D2E/DX2 analytically  !
 ! D20   D(1,2,3,10)           166.3726         calculate D2E/DX2 analytically  !
 ! D21   D(9,2,3,4)           -166.1631         calculate D2E/DX2 analytically  !
 ! D22   D(9,2,3,10)             0.0076         calculate D2E/DX2 analytically  !
 ! D23   D(2,3,4,6)             59.2354         calculate D2E/DX2 analytically  !
 ! D24   D(2,3,4,11)           172.4607         calculate D2E/DX2 analytically  !
 ! D25   D(2,3,4,12)           -31.8201         calculate D2E/DX2 analytically  !
 ! D26   D(10,3,4,6)          -106.8483         calculate D2E/DX2 analytically  !
 ! D27   D(10,3,4,11)            6.377          calculate D2E/DX2 analytically  !
 ! D28   D(10,3,4,12)          162.0962         calculate D2E/DX2 analytically  !
 ! D29   D(3,4,6,5)            -51.6459         calculate D2E/DX2 analytically  !
 ! D30   D(3,4,6,13)          -173.4984         calculate D2E/DX2 analytically  !
 ! D31   D(3,4,6,14)            71.0821         calculate D2E/DX2 analytically  !
 ! D32   D(11,4,6,5)          -176.6325         calculate D2E/DX2 analytically  !
 ! D33   D(11,4,6,13)           61.515          calculate D2E/DX2 analytically  !
 ! D34   D(11,4,6,14)          -53.9045         calculate D2E/DX2 analytically  !
 ! D35   D(12,4,6,5)            68.8028         calculate D2E/DX2 analytically  !
 ! D36   D(12,4,6,13)          -53.0497         calculate D2E/DX2 analytically  !
 ! D37   D(12,4,6,14)         -168.4691         calculate D2E/DX2 analytically  !
 ! D38   D(3,4,12,13)          121.8959         calculate D2E/DX2 analytically  !
 ! D39   D(6,4,12,13)           21.7466         calculate D2E/DX2 analytically  !
 ! D40   D(11,4,12,13)         -81.2324         calculate D2E/DX2 analytically  !
 ! D41   D(1,5,6,4)              0.8114         calculate D2E/DX2 analytically  !
 ! D42   D(1,5,6,13)           102.6962         calculate D2E/DX2 analytically  !
 ! D43   D(1,5,6,14)          -102.6151         calculate D2E/DX2 analytically  !
 ! D44   D(15,5,6,4)          -101.6984         calculate D2E/DX2 analytically  !
 ! D45   D(15,5,6,13)            0.1864         calculate D2E/DX2 analytically  !
 ! D46   D(15,5,6,14)          154.8751         calculate D2E/DX2 analytically  !
 ! D47   D(16,5,6,4)           103.9893         calculate D2E/DX2 analytically  !
 ! D48   D(16,5,6,13)         -154.1259         calculate D2E/DX2 analytically  !
 ! D49   D(16,5,6,14)            0.5628         calculate D2E/DX2 analytically  !
 ! D50   D(1,5,15,7)           -21.5295         calculate D2E/DX2 analytically  !
 ! D51   D(6,5,15,7)            91.1522         calculate D2E/DX2 analytically  !
 ! D52   D(16,5,15,7)         -113.4005         calculate D2E/DX2 analytically  !
 ! D53   D(4,6,13,12)           21.9302         calculate D2E/DX2 analytically  !
 ! D54   D(5,6,13,12)          -90.3958         calculate D2E/DX2 analytically  !
 ! D55   D(14,6,13,12)         113.7585         calculate D2E/DX2 analytically  !
 ! D56   D(1,7,15,5)            49.3246         calculate D2E/DX2 analytically  !
 ! D57   D(4,12,13,6)          -50.5901         calculate D2E/DX2 analytically  !
 --------------------------------------------------------------------------------
 Trust Radius=3.00D-01 FncErr=1.00D-07 GrdErr=1.00D-06 EigMax=2.50D+02 EigMin=1.00D-04
 Number of steps in this run=    100 maximum allowed number of steps=    100.
 Search for a saddle point of order  1.
 GradGradGradGradGradGradGradGradGradGradGradGradGradGradGradGradGradGrad

                          Input orientation:                          
 ---------------------------------------------------------------------
 Center     Atomic      Atomic             Coordinates (Angstroms)
 Number     Number       Type             X           Y           Z
 ---------------------------------------------------------------------
      1          6           0       -1.197692   -0.352344   -2.520111
      2          6           0       -2.424509   -0.065016   -1.976110
      3          6           0       -2.623451   -0.064103   -0.588308
      4          6           0       -1.598995   -0.346281    0.280357
      5          6           0        0.067951    1.229779   -1.608611
      6          6           0       -0.137902    1.242581   -0.246931
      7          1           0       -0.527707   -1.047081   -2.034789
      8          1           0       -1.034542   -0.228185   -3.583274
      9          1           0       -3.187038    0.379578   -2.605643
     10          1           0       -3.532598    0.381386   -0.199993
     11          1           0       -1.742607   -0.221102    1.346026
     12          1           0       -0.813649   -1.034119    0.003740
     13          1           0        0.595783    0.796951    0.411530
     14          1           0       -0.760712    2.002825    0.200553
     15          1           0        0.961309    0.771112   -2.011573
     16          1           0       -0.386202    1.986167   -2.231042
 ---------------------------------------------------------------------
                    Distance matrix (angstroms):
                    1          2          3          4          5
     1  C    0.000000
     2  C    1.372434   0.000000
     3  C    2.418209   1.401989   0.000000
     4  C    2.829082   2.419138   1.372485   0.000000
     5  C    2.221666   2.832650   3.155756   2.971679   0.000000
     6  C    2.972253   3.150942   2.828766   2.222005   1.377212
     7  H    1.080313   2.136762   2.729597   2.645503   2.391763
     8  H    1.082751   2.131105   3.394316   3.906431   2.690807
     9  H    2.121443   1.084171   2.141057   3.373092   3.508827
    10  H    3.372402   2.140497   1.084341   2.121097   3.958273
    11  H    3.906555   3.394988   2.131240   1.082563   3.756734
    12  H    2.642372   2.730171   2.137015   1.080003   2.915841
    13  H    3.623804   3.945374   3.479161   2.478152   2.132350
    14  H    3.624885   3.432499   2.892108   2.495473   2.134797
    15  H    2.486373   3.487711   3.946362   3.613401   1.082055
    16  H    2.492131   2.902936   3.450720   3.635699   1.079721
                    6          7          8          9         10
     6  C    0.000000
     7  H    2.931030   0.000000
     8  H    3.754770   1.823535   0.000000
     9  H    3.950383   3.071363   2.440979   0.000000
    10  H    3.502544   3.799522   4.249524   2.430343   0.000000
    11  H    2.693502   3.686209   4.979900   4.250045   2.440744
    12  H    2.388060   2.058527   3.683069   3.800052   3.072107
    13  H    1.081874   3.262999   4.434786   4.856672   4.194065
    14  H    1.079864   3.788532   4.401106   4.049286   3.236178
    15  H    2.131785   2.350220   2.729883   4.208919   4.860957
    16  H    2.133370   3.042883   2.674366   3.250559   4.074345
                   11         12         13         14         15
    11  H    0.000000
    12  H    1.823648   0.000000
    13  H    2.716207   2.346403   0.000000
    14  H    2.687392   3.043775   1.827217   0.000000
    15  H    4.423699   3.235865   2.450654   3.062021   0.000000
    16  H    4.416705   3.781414   3.059692   2.460323   1.827652
                   16
    16  H    0.000000
 Stoichiometry    C6H10
 Framework group  C1[X(C6H10)]
 Deg. of freedom    42
 Full point group                 C1      NOp   1
 Largest Abelian subgroup         C1      NOp   1
 Largest concise Abelian subgroup C1      NOp   1
                         Standard orientation:                         
 ---------------------------------------------------------------------
 Center     Atomic      Atomic             Coordinates (Angstroms)
 Number     Number       Type             X           Y           Z
 ---------------------------------------------------------------------
      1          6           0        0.429376    1.416326    0.497714
      2          6           0        1.292863    0.703753   -0.296139
      3          6           0        1.297084   -0.698224   -0.291905
      4          6           0        0.435746   -1.412744    0.502621
      5          6           0       -1.538893    0.684492   -0.227638
      6          6           0       -1.531181   -0.692652   -0.238980
      7          1           0        0.120213    1.033409    1.459416
      8          1           0        0.357059    2.491268    0.389915
      9          1           0        1.819686    1.217609   -1.092277
     10          1           0        1.827510   -1.212712   -1.085470
     11          1           0        0.371470   -2.488600    0.400898
     12          1           0        0.115389   -1.025112    1.458403
     13          1           0       -2.035932   -1.239202    0.546488
     14          1           0       -1.407552   -1.226921   -1.169237
     15          1           0       -2.047507    1.211321    0.568982
     16          1           0       -1.430302    1.233230   -1.151160
 ---------------------------------------------------------------------
 Rotational constants (GHZ):           4.4119746           3.5993901           2.3438563
 Standard basis: 6-31G(d) (6D, 7F)
 There are   110 symmetry adapted cartesian basis functions of A   symmetry.
 There are   110 symmetry adapted basis functions of A   symmetry.
   110 basis functions,   208 primitive gaussians,   110 cartesian basis functions
    23 alpha electrons       23 beta electrons
       nuclear repulsion energy       226.7084680570 Hartrees.
 NAtoms=   16 NActive=   16 NUniq=   16 SFac= 1.00D+00 NAtFMM=   60 NAOKFM=F Big=F
 Integral buffers will be    131072 words long.
 Raffenetti 2 integral format.
 Two-electron integral symmetry is turned on.
 Nuclear repulsion after empirical dispersion term =      226.6992974864 Hartrees.
 One-electron integrals computed using PRISM.
 NBasis=   110 RedAO= T EigKep=  2.12D-03  NBF=   110
 NBsUse=   110 1.00D-06 EigRej= -1.00D+00 NBFU=   110
 ExpMin= 1.61D-01 ExpMax= 3.05D+03 ExpMxC= 4.57D+02 IAcc=3 IRadAn=         5 AccDes= 0.00D+00
 Harris functional with IExCor= 4639 and IRadAn=       5 diagonalized for initial guess.
 HarFok:  IExCor= 4639 AccDes= 0.00D+00 IRadAn=         5 IDoV= 1 UseB2=F ITyADJ=14
 ICtDFT=  3500011 ScaDFX=  1.000000  1.000000  1.000000  1.000000
 FoFCou: FMM=F IPFlag=           0 FMFlag=      100000 FMFlg1=           0
         NFxFlg=           0 DoJE=T BraDBF=F KetDBF=T FulRan=T
         wScrn=  0.000000 ICntrl=       500 IOpCl=  0 I1Cent=   200000004 NGrid=           0
         NMat0=    1 NMatS0=      1 NMatT0=    0 NMatD0=    1 NMtDS0=    0 NMtDT0=    0
 Petite list used in FoFCou.
 Requested convergence on RMS density matrix=1.00D-08 within 128 cycles.
 Requested convergence on MAX density matrix=1.00D-06.
 Requested convergence on             energy=1.00D-06.
 No special actions if energy rises.
 Integral accuracy reduced to 1.0D-05 until final iterations.
 Initial convergence to 1.0D-05 achieved.  Increase integral accuracy.
 SCF Done:  E(RwB97XD) =  -234.456648675     A.U. after   15 cycles
            NFock= 15  Conv=0.35D-08     -V/T= 2.0094
 DoSCS=F DFT=T ScalE2(SS,OS)=  1.000000  1.000000
 Range of M.O.s used for correlation:     1   110
 NBasis=   110 NAE=    23 NBE=    23 NFC=     0 NFV=     0
 NROrb=    110 NOA=    23 NOB=    23 NVA=    87 NVB=    87
 Symmetrizing basis deriv contribution to polar:
 IMax=3 JMax=2 DiffMx= 0.00D+00
 G2DrvN: will do    17 centers at a time, making    1 passes.
 Calling FoFCou, ICntrl=  3107 FMM=F I1Cent=   0 AccDes= 0.00D+00.
 End of G2Drv F.D. properties file   721 does not exist.
 End of G2Drv F.D. properties file   722 does not exist.
 End of G2Drv F.D. properties file   788 does not exist.
          IDoAtm=1111111111111111
          Differentiating once with respect to nuclear coordinates.
 Keep R1 ints in memory in canonical form, NReq=60336335.
          There are    51 degrees of freedom in the 1st order CPHF.  IDoFFX=6 NUNeed=     0.
     45 vectors produced by pass  0 Test12= 3.92D-15 1.96D-09 XBig12= 5.86D-02 9.77D-02.
 AX will form    45 AO Fock derivatives at one time.
     45 vectors produced by pass  1 Test12= 3.92D-15 1.96D-09 XBig12= 4.88D-03 1.88D-02.
     45 vectors produced by pass  2 Test12= 3.92D-15 1.96D-09 XBig12= 7.63D-05 2.00D-03.
     45 vectors produced by pass  3 Test12= 3.92D-15 1.96D-09 XBig12= 4.29D-07 9.99D-05.
     45 vectors produced by pass  4 Test12= 3.92D-15 1.96D-09 XBig12= 1.94D-09 6.62D-06.
     45 vectors produced by pass  5 Test12= 3.92D-15 1.96D-09 XBig12= 8.01D-12 3.90D-07.
     24 vectors produced by pass  6 Test12= 3.92D-15 1.96D-09 XBig12= 2.98D-14 2.12D-08.
 InvSVY:  IOpt=1 It=  1 EMax= 5.55D-16
 Solved reduced A of dimension   294 with    51 vectors.
 End of Minotr F.D. properties file   721 does not exist.
 End of Minotr F.D. properties file   722 does not exist.
 End of Minotr F.D. properties file   788 does not exist.

 **********************************************************************

            Population analysis using the SCF Density.

 **********************************************************************

 Orbital symmetries:
       Occupied  (A) (A) (A) (A) (A) (A) (A) (A) (A) (A) (A) (A)
                 (A) (A) (A) (A) (A) (A) (A) (A) (A) (A) (A)
       Virtual   (A) (A) (A) (A) (A) (A) (A) (A) (A) (A) (A) (A)
                 (A) (A) (A) (A) (A) (A) (A) (A) (A) (A) (A) (A)
                 (A) (A) (A) (A) (A) (A) (A) (A) (A) (A) (A) (A)
                 (A) (A) (A) (A) (A) (A) (A) (A) (A) (A) (A) (A)
                 (A) (A) (A) (A) (A) (A) (A) (A) (A) (A) (A) (A)
                 (A) (A) (A) (A) (A) (A) (A) (A) (A) (A) (A) (A)
                 (A) (A) (A) (A) (A) (A) (A) (A) (A) (A) (A) (A)
                 (A) (A) (A)
 The electronic state is 1-A.
 Alpha  occ. eigenvalues --  -10.29587 -10.29584 -10.28998 -10.28933 -10.28373
 Alpha  occ. eigenvalues --  -10.28318  -0.90632  -0.84011  -0.81179  -0.71231
 Alpha  occ. eigenvalues --   -0.66949  -0.60449  -0.57830  -0.54876  -0.50795
 Alpha  occ. eigenvalues --   -0.48550  -0.48370  -0.44370  -0.43280  -0.42557
 Alpha  occ. eigenvalues --   -0.41647  -0.29637  -0.29064
 Alpha virt. eigenvalues --    0.06614   0.09433   0.17804   0.19316   0.21482
 Alpha virt. eigenvalues --    0.22723   0.23352   0.23864   0.26120   0.29335
 Alpha virt. eigenvalues --    0.29519   0.33126   0.33926   0.37492   0.40736
 Alpha virt. eigenvalues --    0.45107   0.51942   0.55147   0.58949   0.60500
 Alpha virt. eigenvalues --    0.64505   0.66262   0.66888   0.70312   0.72303
 Alpha virt. eigenvalues --    0.73390   0.75080   0.77269   0.77356   0.83265
 Alpha virt. eigenvalues --    0.84694   0.91747   0.95201   0.96324   0.96654
 Alpha virt. eigenvalues --    0.97078   0.98762   0.99314   1.03981   1.05878
 Alpha virt. eigenvalues --    1.06262   1.09173   1.10743   1.16296   1.17256
 Alpha virt. eigenvalues --    1.22098   1.26076   1.33948   1.37840   1.48278
 Alpha virt. eigenvalues --    1.49533   1.57852   1.62658   1.70479   1.71052
 Alpha virt. eigenvalues --    1.82462   1.85314   1.90638   2.02880   2.03344
 Alpha virt. eigenvalues --    2.05811   2.07849   2.09101   2.13736   2.15173
 Alpha virt. eigenvalues --    2.19224   2.23261   2.29944   2.30382   2.34929
 Alpha virt. eigenvalues --    2.37288   2.37789   2.53567   2.63663   2.67295
 Alpha virt. eigenvalues --    2.70676   2.70716   2.77969   2.80408   2.97400
 Alpha virt. eigenvalues --    3.15749   4.23816   4.34813   4.38417   4.40575
 Alpha virt. eigenvalues --    4.54111   4.64395
          Condensed to atoms (all electrons):
               1          2          3          4          5          6
     1  C    5.130859   0.561582  -0.049468  -0.032177   0.095525  -0.018625
     2  C    0.561582   4.820980   0.554766  -0.049574  -0.019522  -0.026338
     3  C   -0.049468   0.554766   4.820361   0.561805  -0.026142  -0.019528
     4  C   -0.032177  -0.049574   0.561805   5.130924  -0.018592   0.095627
     5  C    0.095525  -0.019522  -0.026142  -0.018592   5.086142   0.554593
     6  C   -0.018625  -0.026338  -0.019528   0.095627   0.554593   5.085933
     7  H    0.382009  -0.033147  -0.010890   0.004745  -0.016278  -0.006987
     8  H    0.375041  -0.029014   0.004651   0.000465  -0.005550   0.000974
     9  H   -0.052887   0.382328  -0.041723   0.005516   0.000548  -0.000069
    10  H    0.005535  -0.041793   0.382283  -0.052914  -0.000065   0.000512
    11  H    0.000461   0.004654  -0.028982   0.375027   0.000973  -0.005477
    12  H    0.004852  -0.010926  -0.033092   0.381972  -0.007108  -0.016429
    13  H    0.001054   0.000514   0.000535  -0.010237  -0.038594   0.386104
    14  H    0.000745   0.000630  -0.003545  -0.009064  -0.034473   0.390627
    15  H   -0.009987   0.000570   0.000507   0.001003   0.385994  -0.038642
    16  H   -0.009091  -0.003634   0.000609   0.000776   0.390847  -0.034559
               7          8          9         10         11         12
     1  C    0.382009   0.375041  -0.052887   0.005535   0.000461   0.004852
     2  C   -0.033147  -0.029014   0.382328  -0.041793   0.004654  -0.010926
     3  C   -0.010890   0.004651  -0.041723   0.382283  -0.028982  -0.033092
     4  C    0.004745   0.000465   0.005516  -0.052914   0.375027   0.381972
     5  C   -0.016278  -0.005550   0.000548  -0.000065   0.000973  -0.007108
     6  C   -0.006987   0.000974  -0.000069   0.000512  -0.005477  -0.016429
     7  H    0.530748  -0.035807   0.004396   0.000002  -0.000053   0.005455
     8  H   -0.035807   0.527837  -0.005697  -0.000131  -0.000006  -0.000056
     9  H    0.004396  -0.005697   0.560386  -0.006108  -0.000130   0.000002
    10  H    0.000002  -0.000131  -0.006108   0.560719  -0.005704   0.004406
    11  H   -0.000053  -0.000006  -0.000130  -0.005704   0.527629  -0.035810
    12  H    0.005455  -0.000056   0.000002   0.004406  -0.035810   0.530991
    13  H    0.000463  -0.000024   0.000005  -0.000043   0.000133  -0.003156
    14  H   -0.000001  -0.000025  -0.000004   0.000438  -0.000825   0.001127
    15  H   -0.003085   0.000141  -0.000042   0.000005  -0.000024   0.000502
    16  H    0.001094  -0.000856   0.000414  -0.000002  -0.000025  -0.000003
              13         14         15         16
     1  C    0.001054   0.000745  -0.009987  -0.009091
     2  C    0.000514   0.000630   0.000570  -0.003634
     3  C    0.000535  -0.003545   0.000507   0.000609
     4  C   -0.010237  -0.009064   0.001003   0.000776
     5  C   -0.038594  -0.034473   0.385994   0.390847
     6  C    0.386104   0.390627  -0.038642  -0.034559
     7  H    0.000463  -0.000001  -0.003085   0.001094
     8  H   -0.000024  -0.000025   0.000141  -0.000856
     9  H    0.000005  -0.000004  -0.000042   0.000414
    10  H   -0.000043   0.000438   0.000005  -0.000002
    11  H    0.000133  -0.000825  -0.000024  -0.000025
    12  H   -0.003156   0.001127   0.000502  -0.000003
    13  H    0.530412  -0.034977  -0.006531   0.003882
    14  H   -0.034977   0.514969   0.003898  -0.006337
    15  H   -0.006531   0.003898   0.530727  -0.034962
    16  H    0.003882  -0.006337  -0.034962   0.514835
 Mulliken charges:
               1
     1  C   -0.385431
     2  C   -0.112075
     3  C   -0.112145
     4  C   -0.385302
     5  C   -0.348298
     6  C   -0.347716
     7  H    0.177336
     8  H    0.168058
     9  H    0.153066
    10  H    0.152862
    11  H    0.168159
    12  H    0.177272
    13  H    0.170461
    14  H    0.176816
    15  H    0.169925
    16  H    0.177012
 Sum of Mulliken charges =  -0.00000
 Mulliken charges with hydrogens summed into heavy atoms:
               1
     1  C   -0.040036
     2  C    0.040990
     3  C    0.040716
     4  C   -0.039871
     5  C   -0.001360
     6  C   -0.000439
 APT charges:
               1
     1  C   -0.870706
     2  C   -0.503996
     3  C   -0.504438
     4  C   -0.867755
     5  C   -0.921397
     6  C   -0.918696
     7  H    0.339840
     8  H    0.547580
     9  H    0.509918
    10  H    0.509436
    11  H    0.548270
    12  H    0.337563
    13  H    0.480144
    14  H    0.415791
    15  H    0.479753
    16  H    0.418691
 Sum of APT charges =  -0.00000
 APT charges with hydrogens summed into heavy atoms:
               1
     1  C    0.016714
     2  C    0.005922
     3  C    0.004998
     4  C    0.018079
     5  C   -0.022953
     6  C   -0.022760
 Electronic spatial extent (au):  <R**2>=            597.7800
 Charge=             -0.0000 electrons
 Dipole moment (field-independent basis, Debye):
    X=             -0.4335    Y=             -0.0053    Z=             -0.0092  Tot=              0.4336
 Quadrupole moment (field-independent basis, Debye-Ang):
   XX=            -40.8631   YY=            -35.1338   ZZ=            -36.3734
   XY=             -0.0182   XZ=             -2.8607   YZ=             -0.0141
 Traceless Quadrupole moment (field-independent basis, Debye-Ang):
   XX=             -3.4064   YY=              2.3230   ZZ=              1.0834
   XY=             -0.0182   XZ=             -2.8607   YZ=             -0.0141
 Octapole moment (field-independent basis, Debye-Ang**2):
  XXX=              0.5472  YYY=             -0.0459  ZZZ=             -0.0089  XYY=             -1.1921
  XXY=             -0.0096  XXZ=             -1.8364  XZZ=             -1.0472  YZZ=              0.0230
  YYZ=             -1.3579  XYZ=              0.0172
 Hexadecapole moment (field-independent basis, Debye-Ang**3):
 XXXX=           -411.1883 YYYY=           -301.3695 ZZZZ=           -101.9284 XXXY=             -0.1045
 XXXZ=            -17.9643 YYYX=             -0.0884 YYYZ=             -0.1788 ZZZX=             -3.4834
 ZZZY=              0.0600 XXYY=           -117.5329 XXZZ=            -79.3693 YYZZ=            -70.0395
 XXYZ=             -0.0544 YYXZ=             -4.7266 ZZXY=             -0.0084
 N-N= 2.266992974864D+02 E-N=-9.955899434561D+02  KE= 2.322735587882D+02
  Exact polarizability:       0.000       0.000       0.000       0.000       0.000       0.000
 Approx polarizability:      85.303      -0.078      92.571      -8.642      -0.023      57.135
 Calling FoFJK, ICntrl=    100127 FMM=F ISym2X=0 I1Cent= 0 IOpClX= 0 NMat=1 NMatS=1 NMatT=0.
 ***** Axes restored to original set *****
 -------------------------------------------------------------------
 Center     Atomic                   Forces (Hartrees/Bohr)
 Number     Number              X              Y              Z
 -------------------------------------------------------------------
      1        6           0.006087529    0.003889369   -0.000693183
      2        6          -0.005815058   -0.000841039    0.004032136
      3        6          -0.004718055   -0.000504194   -0.005412127
      4        6           0.005521054    0.004107672    0.001900825
      5        6          -0.001353694   -0.003141926   -0.006106207
      6        6          -0.002958499   -0.003431536    0.005818514
      7        1           0.001394044   -0.002866172    0.000107757
      8        1           0.000570849   -0.000471190   -0.002842053
      9        1          -0.001921737    0.000920895   -0.001490695
     10        1          -0.002239173    0.000746487    0.000924454
     11        1          -0.000248554   -0.000402681    0.002995552
     12        1           0.001317526   -0.003207601    0.000364828
     13        1           0.002601182   -0.000077208    0.001934888
     14        1          -0.000707597    0.002772033    0.001115026
     15        1           0.002900981   -0.000144322   -0.001105303
     16        1          -0.000430798    0.002651414   -0.001544412
 -------------------------------------------------------------------
 Cartesian Forces:  Max     0.006106207 RMS     0.002894445
 FormGI is forming the generalized inverse of G from B-inverse, IUseBI=4.

 GradGradGradGradGradGradGradGradGradGradGradGradGradGradGradGradGradGrad
 Berny optimization.
 Internal  Forces:  Max     0.008680777 RMS     0.001696295
 Search for a saddle point.
 Step number   1 out of a maximum of  100
 All quantities printed in internal units (Hartrees-Bohrs-Radians)
 Swapping is turned off.
 Second derivative matrix not updated -- analytic derivatives used.
 ITU=  0
     Eigenvalues ---   -0.04157   0.00152   0.00599   0.00737   0.01017
     Eigenvalues ---    0.01378   0.01520   0.01744   0.01930   0.02220
     Eigenvalues ---    0.02291   0.02300   0.02586   0.02842   0.02956
     Eigenvalues ---    0.03654   0.04503   0.04623   0.05081   0.05173
     Eigenvalues ---    0.05761   0.05861   0.05972   0.07090   0.10741
     Eigenvalues ---    0.12501   0.12514   0.16232   0.31952   0.32632
     Eigenvalues ---    0.34459   0.35432   0.36681   0.36865   0.37459
     Eigenvalues ---    0.37504   0.37640   0.37992   0.38115   0.48172
     Eigenvalues ---    0.48428   0.53221
 Eigenvectors required to have negative eigenvalues:
                          R2        R9        D48       D46       D3
   1                    0.54197   0.54017  -0.17026   0.16687  -0.16018
                          D25       D4        D28       D52       D55
   1                    0.15875  -0.13806   0.13645   0.12661  -0.12608
 RFO step:  Lambda0=4.650999324D-04 Lambda=-8.50246839D-04.
 Linear search not attempted -- option 19 set.
 Iteration  1 RMS(Cart)=  0.01861336 RMS(Int)=  0.00009309
 Iteration  2 RMS(Cart)=  0.00008717 RMS(Int)=  0.00003959
 Iteration  3 RMS(Cart)=  0.00000001 RMS(Int)=  0.00003959
 Variable       Old X    -DE/DX   Delta X   Delta X   Delta X     New X
                                 (Linear)    (Quad)   (Total)
    R1        2.59352   0.00860   0.00000   0.00736   0.00738   2.60090
    R2        4.19834  -0.00060   0.00000   0.07750   0.07754   4.27588
    R3        2.04150   0.00255   0.00000   0.00726   0.00726   2.04876
    R4        2.04610   0.00282   0.00000   0.00745   0.00745   2.05355
    R5        2.64938   0.00106   0.00000   0.00871   0.00870   2.65807
    R6        2.04879   0.00259   0.00000   0.00717   0.00717   2.05595
    R7        2.59362   0.00853   0.00000   0.00738   0.00734   2.60096
    R8        2.04911   0.00251   0.00000   0.00684   0.00684   2.05595
    R9        4.19898  -0.00059   0.00000   0.07317   0.07318   4.27216
   R10        2.04575   0.00294   0.00000   0.00780   0.00780   2.05354
   R11        2.04091   0.00266   0.00000   0.00789   0.00787   2.04878
   R12        2.60255   0.00868   0.00000   0.00425   0.00427   2.60682
   R13        2.04479   0.00260   0.00000   0.00732   0.00730   2.05209
   R14        2.04038   0.00293   0.00000   0.00762   0.00762   2.04800
   R15        2.04445   0.00264   0.00000   0.00764   0.00762   2.05207
   R16        2.04065   0.00282   0.00000   0.00742   0.00742   2.04807
   R17        4.44127   0.00021   0.00000   0.03230   0.03228   4.47356
   R18        4.43406   0.00039   0.00000   0.03948   0.03948   4.47354
    A1        1.76963   0.00035   0.00000   0.00621   0.00614   1.77577
    A2        2.10708  -0.00002   0.00000   0.00280   0.00282   2.10990
    A3        2.09427   0.00016   0.00000   0.00113   0.00106   2.09533
    A4        1.49106  -0.00001   0.00000  -0.01393  -0.01393   1.47713
    A5        1.80838   0.00048   0.00000   0.00772   0.00774   1.81612
    A6        2.00579  -0.00051   0.00000  -0.00442  -0.00438   2.00141
    A7        2.11688   0.00028   0.00000   0.00925   0.00923   2.12611
    A8        2.07647  -0.00006   0.00000  -0.00416  -0.00415   2.07232
    A9        2.06543  -0.00030   0.00000  -0.00527  -0.00527   2.06017
   A10        2.11818   0.00008   0.00000   0.00759   0.00752   2.12571
   A11        2.06432  -0.00014   0.00000  -0.00406  -0.00404   2.06028
   A12        2.07560  -0.00000   0.00000  -0.00314  -0.00310   2.07250
   A13        1.76564   0.00042   0.00000   0.00970   0.00961   1.77525
   A14        2.09468   0.00015   0.00000   0.00094   0.00088   2.09556
   A15        2.10786   0.00000   0.00000   0.00147   0.00150   2.10936
   A16        1.81125   0.00042   0.00000   0.00495   0.00498   1.81624
   A17        1.48717   0.00004   0.00000  -0.00914  -0.00917   1.47801
   A18        2.00671  -0.00054   0.00000  -0.00520  -0.00518   2.00153
   A19        1.90405   0.00032   0.00000  -0.00041  -0.00045   1.90360
   A20        1.58648   0.00010   0.00000  -0.00570  -0.00567   1.58082
   A21        1.59354   0.00018   0.00000  -0.00600  -0.00600   1.58754
   A22        2.08926   0.00019   0.00000   0.00492   0.00490   2.09416
   A23        2.09508  -0.00033   0.00000   0.00038   0.00039   2.09546
   A24        2.01478  -0.00013   0.00000  -0.00026  -0.00031   2.01446
   A25        1.90315   0.00031   0.00000   0.00055   0.00050   1.90365
   A26        1.57776   0.00015   0.00000   0.00040   0.00037   1.57813
   A27        1.59663   0.00021   0.00000  -0.00618  -0.00615   1.59048
   A28        2.09044   0.00024   0.00000   0.00404   0.00406   2.09450
   A29        2.09725  -0.00047   0.00000  -0.00213  -0.00212   2.09512
   A30        2.01408  -0.00005   0.00000   0.00026   0.00024   2.01432
   A31        1.47048  -0.00012   0.00000   0.01618   0.01621   1.48668
   A32        1.46588  -0.00017   0.00000   0.01650   0.01647   1.48235
   A33        1.37791  -0.00026   0.00000   0.00689   0.00681   1.38472
   A34        1.37814  -0.00023   0.00000   0.00747   0.00741   1.38555
    D1       -1.03409   0.00087   0.00000   0.01229   0.01238  -1.02172
    D2        1.86806   0.00047   0.00000   0.01065   0.01068   1.87874
    D3        0.56195   0.00106   0.00000   0.00014   0.00018   0.56213
    D4       -2.81909   0.00066   0.00000  -0.00151  -0.00151  -2.82060
    D5       -3.00933  -0.00005   0.00000  -0.00228  -0.00221  -3.01154
    D6       -0.10718  -0.00045   0.00000  -0.00392  -0.00391  -0.11109
    D7        0.87741  -0.00058   0.00000  -0.00762  -0.00760   0.86981
    D8        3.00669  -0.00026   0.00000  -0.00477  -0.00476   3.00193
    D9       -1.26114  -0.00037   0.00000  -0.00538  -0.00537  -1.26652
   D10       -1.22482  -0.00057   0.00000  -0.00803  -0.00801  -1.23283
   D11        0.90446  -0.00024   0.00000  -0.00518  -0.00517   0.89929
   D12        2.91981  -0.00036   0.00000  -0.00579  -0.00578   2.91403
   D13        3.05895  -0.00005   0.00000  -0.00046  -0.00040   3.05855
   D14       -1.09496   0.00027   0.00000   0.00240   0.00244  -1.09252
   D15        0.92039   0.00016   0.00000   0.00179   0.00183   0.92221
   D16       -2.12709  -0.00081   0.00000   0.00454   0.00458  -2.12252
   D17       -0.37224  -0.00041   0.00000   0.00363   0.00357  -0.36867
   D18        1.42367   0.00010   0.00000   0.00565   0.00569   1.42936
   D19        0.00352  -0.00004   0.00000  -0.00238  -0.00238   0.00114
   D20        2.90375  -0.00034   0.00000  -0.00098  -0.00103   2.90272
   D21       -2.90009   0.00032   0.00000  -0.00088  -0.00083  -2.90092
   D22        0.00013   0.00003   0.00000   0.00052   0.00052   0.00066
   D23        1.03385  -0.00081   0.00000  -0.01087  -0.01098   1.02287
   D24        3.01001   0.00008   0.00000   0.00264   0.00258   3.01258
   D25       -0.55537  -0.00111   0.00000  -0.00619  -0.00621  -0.56158
   D26       -1.86485  -0.00050   0.00000  -0.01217  -0.01223  -1.87709
   D27        0.11130   0.00040   0.00000   0.00134   0.00133   0.11263
   D28        2.82911  -0.00079   0.00000  -0.00749  -0.00746   2.82165
   D29       -0.90139   0.00066   0.00000   0.02200   0.02201  -0.87938
   D30       -3.02812   0.00027   0.00000   0.01734   0.01735  -3.01076
   D31        1.24062   0.00031   0.00000   0.01719   0.01721   1.25783
   D32       -3.08282   0.00013   0.00000   0.01467   0.01464  -3.06818
   D33        1.07364  -0.00025   0.00000   0.01002   0.00998   1.08362
   D34       -0.94081  -0.00021   0.00000   0.00986   0.00984  -0.93097
   D35        1.20084   0.00067   0.00000   0.02204   0.02202   1.22286
   D36       -0.92589   0.00028   0.00000   0.01738   0.01736  -0.90853
   D37       -2.94034   0.00033   0.00000   0.01723   0.01723  -2.92312
   D38        2.12749   0.00091   0.00000  -0.00204  -0.00209   2.12539
   D39        0.37955   0.00040   0.00000  -0.00797  -0.00790   0.37165
   D40       -1.41777  -0.00007   0.00000  -0.00913  -0.00915  -1.42692
   D41        0.01416  -0.00009   0.00000  -0.00894  -0.00891   0.00525
   D42        1.79239   0.00042   0.00000  -0.00617  -0.00619   1.78620
   D43       -1.79097  -0.00033   0.00000  -0.00050  -0.00048  -1.79145
   D44       -1.77497  -0.00052   0.00000  -0.00393  -0.00388  -1.77885
   D45        0.00325  -0.00001   0.00000  -0.00116  -0.00116   0.00209
   D46        2.70308  -0.00076   0.00000   0.00452   0.00454   2.70763
   D47        1.81496   0.00019   0.00000  -0.01657  -0.01655   1.79840
   D48       -2.69000   0.00070   0.00000  -0.01380  -0.01383  -2.70384
   D49        0.00982  -0.00005   0.00000  -0.00812  -0.00812   0.00170
   D50       -0.37576  -0.00042   0.00000   0.00409   0.00408  -0.37168
   D51        1.59091   0.00007   0.00000   0.00130   0.00123   1.59214
   D52       -1.97921  -0.00066   0.00000   0.01346   0.01344  -1.96578
   D53        0.38275   0.00043   0.00000  -0.00814  -0.00813   0.37462
   D54       -1.57770  -0.00010   0.00000  -0.01002  -0.00995  -1.58765
   D55        1.98546   0.00073   0.00000  -0.01479  -0.01476   1.97070
   D56        0.86088  -0.00037   0.00000   0.00350   0.00341   0.86429
   D57       -0.88296   0.00045   0.00000   0.01023   0.01036  -0.87260
         Item               Value     Threshold  Converged?
 Maximum Force            0.008681     0.000450     NO 
 RMS     Force            0.001696     0.000300     NO 
 Maximum Displacement     0.053705     0.001800     NO 
 RMS     Displacement     0.018623     0.001200     NO 
 Predicted change in Energy=-1.943796D-04
 GradGradGradGradGradGradGradGradGradGradGradGradGradGradGradGradGradGrad

                          Input orientation:                          
 ---------------------------------------------------------------------
 Center     Atomic      Atomic             Coordinates (Angstroms)
 Number     Number       Type             X           Y           Z
 ---------------------------------------------------------------------
      1          6           0       -1.206919   -0.356950   -2.535721
      2          6           0       -2.435628   -0.079844   -1.980934
      3          6           0       -2.636775   -0.075661   -0.588806
      4          6           0       -1.614914   -0.347228    0.292357
      5          6           0        0.090525    1.246666   -1.605737
      6          6           0       -0.111066    1.254259   -0.241097
      7          1           0       -0.522084   -1.046574   -2.055291
      8          1           0       -1.052261   -0.234724   -3.604383
      9          1           0       -3.206686    0.359373   -2.610395
     10          1           0       -3.554350    0.366010   -0.205872
     11          1           0       -1.768779   -0.219684    1.360510
     12          1           0       -0.821967   -1.037908    0.028511
     13          1           0        0.620913    0.797869    0.418531
     14          1           0       -0.732293    2.018436    0.211353
     15          1           0        0.980394    0.782487   -2.020336
     16          1           0       -0.370673    2.005622   -2.226868
 ---------------------------------------------------------------------
                    Distance matrix (angstroms):
                    1          2          3          4          5
     1  C    0.000000
     2  C    1.376337   0.000000
     3  C    2.431890   1.406591   0.000000
     4  C    2.857372   2.431649   1.376371   0.000000
     5  C    2.262701   2.877821   3.197008   3.008617   0.000000
     6  C    3.010346   3.195380   2.875551   2.260728   1.379470
     7  H    1.084155   2.145168   2.750485   2.682314   2.415852
     8  H    1.086691   2.138523   3.410234   3.938758   2.737711
     9  H    2.125503   1.087963   2.144965   3.385113   3.559246
    10  H    3.385454   2.145034   1.087959   2.125642   4.002536
    11  H    3.938926   3.410203   2.138689   1.086689   3.795499
    12  H    2.680891   2.749483   2.144884   1.084167   2.953420
    13  H    3.660898   3.983749   3.519988   2.515171   2.140185
    14  H    3.662532   3.479979   2.941521   2.526251   2.138802
    15  H    2.519578   3.523404   3.983668   3.655192   1.085920
    16  H    2.525162   2.945113   3.485714   3.664769   1.083753
                    6          7          8          9         10
     6  C    0.000000
     7  H    2.958728   0.000000
     8  H    3.796658   1.827533   0.000000
     9  H    3.999657   3.080895   2.445918   0.000000
    10  H    3.556182   3.822353   4.262771   2.429536   0.000000
    11  H    2.735994   3.729033   5.016352   4.262742   2.446396
    12  H    2.414974   2.105288   3.727742   3.821401   3.080883
    13  H    1.085908   3.290624   4.477677   4.900734   4.243725
    14  H    1.083789   3.817872   4.442854   4.103337   3.296755
    15  H    2.139987   2.367304   2.770489   4.249569   4.902004
    16  H    2.138978   3.060762   2.716847   3.301546   4.112001
                   11         12         13         14         15
    11  H    0.000000
    12  H    1.827611   0.000000
    13  H    2.762855   2.367297   0.000000
    14  H    2.721037   3.063121   1.834087   0.000000
    15  H    4.471288   3.280262   2.465266   3.072670   0.000000
    16  H    4.447018   3.814902   3.072466   2.464925   1.834147
                   16
    16  H    0.000000
 Stoichiometry    C6H10
 Framework group  C1[X(C6H10)]
 Deg. of freedom    42
 Full point group                 C1      NOp   1
 Largest Abelian subgroup         C1      NOp   1
 Largest concise Abelian subgroup C1      NOp   1
                         Standard orientation:                         
 ---------------------------------------------------------------------
 Center     Atomic      Atomic             Coordinates (Angstroms)
 Number     Number       Type             X           Y           Z
 ---------------------------------------------------------------------
      1          6           0        0.448585    1.428981    0.493751
      2          6           0        1.311892    0.701626   -0.293623
      3          6           0        1.310338   -0.704964   -0.292220
      4          6           0        0.444292   -1.428387    0.495828
      5          6           0       -1.565143    0.690834   -0.227257
      6          6           0       -1.564516   -0.688631   -0.231045
      7          1           0        0.126250    1.054794    1.458881
      8          1           0        0.389192    2.508365    0.382839
      9          1           0        1.848184    1.211657   -1.091070
     10          1           0        1.845988   -1.217876   -1.088245
     11          1           0        0.382852   -2.507980    0.388141
     12          1           0        0.121723   -1.050489    1.459446
     13          1           0       -2.062409   -1.234100    0.565046
     14          1           0       -1.449885   -1.228596   -1.163727
     15          1           0       -2.061964    1.231152    0.573023
     16          1           0       -1.452613    1.236318   -1.156937
 ---------------------------------------------------------------------
 Rotational constants (GHZ):           4.3649387           3.5019242           2.2856467
 Standard basis: 6-31G(d) (6D, 7F)
 There are   110 symmetry adapted cartesian basis functions of A   symmetry.
 There are   110 symmetry adapted basis functions of A   symmetry.
   110 basis functions,   208 primitive gaussians,   110 cartesian basis functions
    23 alpha electrons       23 beta electrons
       nuclear repulsion energy       224.9260331067 Hartrees.
 NAtoms=   16 NActive=   16 NUniq=   16 SFac= 1.00D+00 NAtFMM=   60 NAOKFM=F Big=F
 Integral buffers will be    131072 words long.
 Raffenetti 2 integral format.
 Two-electron integral symmetry is turned on.
 Nuclear repulsion after empirical dispersion term =      224.9168669624 Hartrees.
 One-electron integrals computed using PRISM.
 NBasis=   110 RedAO= T EigKep=  2.22D-03  NBF=   110
 NBsUse=   110 1.00D-06 EigRej= -1.00D+00 NBFU=   110
 Initial guess from the checkpoint file:  "/home/avrubio/scratches/g16/4126/Gau-2452789.chk"
 B after Tr=    -0.000000   -0.000000   -0.000000
         Rot=    0.999997    0.000132   -0.001681    0.001904 Ang=   0.29 deg.
 ExpMin= 1.61D-01 ExpMax= 3.05D+03 ExpMxC= 4.57D+02 IAcc=3 IRadAn=         5 AccDes= 0.00D+00
 Harris functional with IExCor= 4639 and IRadAn=       5 diagonalized for initial guess.
 HarFok:  IExCor= 4639 AccDes= 0.00D+00 IRadAn=         5 IDoV= 1 UseB2=F ITyADJ=14
 ICtDFT=  3500011 ScaDFX=  1.000000  1.000000  1.000000  1.000000
 FoFCou: FMM=F IPFlag=           0 FMFlag=      100000 FMFlg1=           0
         NFxFlg=           0 DoJE=T BraDBF=F KetDBF=T FulRan=T
         wScrn=  0.000000 ICntrl=       500 IOpCl=  0 I1Cent=   200000004 NGrid=           0
         NMat0=    1 NMatS0=      1 NMatT0=    0 NMatD0=    1 NMtDS0=    0 NMtDT0=    0
 Petite list used in FoFCou.
 Requested convergence on RMS density matrix=1.00D-08 within 128 cycles.
 Requested convergence on MAX density matrix=1.00D-06.
 Requested convergence on             energy=1.00D-06.
 No special actions if energy rises.
 Integral accuracy reduced to 1.0D-05 until final iterations.
 Initial convergence to 1.0D-05 achieved.  Increase integral accuracy.
 SCF Done:  E(RwB97XD) =  -234.456842503     A.U. after   14 cycles
            NFock= 14  Conv=0.56D-08     -V/T= 2.0099
 Calling FoFJK, ICntrl=      2127 FMM=F ISym2X=0 I1Cent= 0 IOpClX= 0 NMat=1 NMatS=1 NMatT=0.
 ***** Axes restored to original set *****
 -------------------------------------------------------------------
 Center     Atomic                   Forces (Hartrees/Bohr)
 Number     Number              X              Y              Z
 -------------------------------------------------------------------
      1        6           0.000325174    0.000333846    0.000009295
      2        6          -0.000209729   -0.000072908    0.000101744
      3        6          -0.000168535   -0.000057994   -0.000183502
      4        6           0.000292867    0.000307424    0.000034629
      5        6          -0.000137707   -0.000218184   -0.000247600
      6        6          -0.000166994   -0.000250725    0.000221681
      7        1          -0.000033236   -0.000095007    0.000051777
      8        1          -0.000021310   -0.000047245   -0.000051430
      9        1          -0.000032449   -0.000004603   -0.000021630
     10        1          -0.000032150   -0.000005403    0.000013556
     11        1          -0.000037496   -0.000030830    0.000044518
     12        1          -0.000028896   -0.000112438    0.000004980
     13        1           0.000115049    0.000069830    0.000000017
     14        1           0.000027081    0.000061907    0.000032027
     15        1           0.000088390    0.000051447    0.000000287
     16        1           0.000019942    0.000070883   -0.000010350
 -------------------------------------------------------------------
 Cartesian Forces:  Max     0.000333846 RMS     0.000134635

 GradGradGradGradGradGradGradGradGradGradGradGradGradGradGradGradGradGrad
 Berny optimization.
 FormGI is forming the generalized inverse of G from B-inverse, IUseBI=4.
 Internal  Forces:  Max     0.000229868 RMS     0.000048375
 Search for a saddle point.
 Step number   2 out of a maximum of  100
 All quantities printed in internal units (Hartrees-Bohrs-Radians)
 Swapping is turned off.
 Update second derivatives using D2CorX and points    1    2
 ITU=  0  0
     Eigenvalues ---   -0.03931   0.00147   0.00600   0.00736   0.01016
     Eigenvalues ---    0.01379   0.01520   0.01744   0.01930   0.02220
     Eigenvalues ---    0.02291   0.02300   0.02577   0.02842   0.02955
     Eigenvalues ---    0.03654   0.04467   0.04623   0.05083   0.05173
     Eigenvalues ---    0.05755   0.05861   0.05977   0.07090   0.10743
     Eigenvalues ---    0.12501   0.12514   0.16231   0.31951   0.32632
     Eigenvalues ---    0.34444   0.35428   0.36676   0.36864   0.37459
     Eigenvalues ---    0.37504   0.37629   0.37992   0.38106   0.48152
     Eigenvalues ---    0.48426   0.53193
 Eigenvectors required to have negative eigenvalues:
                          R9        R2        D48       D46       D3
   1                    0.54060   0.54000  -0.17007   0.16961  -0.16190
                          D25       D4        D28       A31       A32
   1                    0.16183  -0.13963   0.13954   0.12766   0.12660
 RFO step:  Lambda0=2.208503157D-06 Lambda=-2.19708059D-06.
 Linear search not attempted -- option 19 set.
 Iteration  1 RMS(Cart)=  0.00256144 RMS(Int)=  0.00000502
 Iteration  2 RMS(Cart)=  0.00000476 RMS(Int)=  0.00000192
 Iteration  3 RMS(Cart)=  0.00000000 RMS(Int)=  0.00000192
 Variable       Old X    -DE/DX   Delta X   Delta X   Delta X     New X
                                 (Linear)    (Quad)   (Total)
    R1        2.60090   0.00022   0.00000  -0.00014  -0.00014   2.60076
    R2        4.27588  -0.00010   0.00000   0.00253   0.00253   4.27841
    R3        2.04876   0.00006   0.00000   0.00015   0.00015   2.04891
    R4        2.05355   0.00004   0.00000   0.00011   0.00011   2.05366
    R5        2.65807  -0.00003   0.00000   0.00070   0.00070   2.65877
    R6        2.05595   0.00003   0.00000   0.00010   0.00010   2.05605
    R7        2.60096   0.00023   0.00000  -0.00029  -0.00029   2.60067
    R8        2.05595   0.00003   0.00000   0.00011   0.00011   2.05605
    R9        4.27216  -0.00010   0.00000   0.00741   0.00741   4.27957
   R10        2.05354   0.00005   0.00000   0.00011   0.00011   2.05365
   R11        2.04878   0.00005   0.00000   0.00012   0.00012   2.04890
   R12        2.60682   0.00020   0.00000  -0.00047  -0.00048   2.60635
   R13        2.05209   0.00003   0.00000   0.00013   0.00013   2.05222
   R14        2.04800   0.00005   0.00000   0.00015   0.00015   2.04815
   R15        2.05207   0.00003   0.00000   0.00015   0.00015   2.05221
   R16        2.04807   0.00004   0.00000   0.00007   0.00007   2.04814
   R17        4.47356  -0.00001   0.00000   0.00293   0.00293   4.47649
   R18        4.47354   0.00001   0.00000   0.00258   0.00258   4.47613
    A1        1.77577   0.00006   0.00000   0.00061   0.00061   1.77638
    A2        2.10990  -0.00003   0.00000  -0.00079  -0.00079   2.10911
    A3        2.09533  -0.00002   0.00000   0.00013   0.00013   2.09547
    A4        1.47713  -0.00001   0.00000  -0.00073  -0.00074   1.47639
    A5        1.81612   0.00003   0.00000   0.00075   0.00075   1.81687
    A6        2.00141   0.00001   0.00000   0.00034   0.00034   2.00175
    A7        2.12611  -0.00002   0.00000   0.00006   0.00006   2.12617
    A8        2.07232   0.00001   0.00000   0.00011   0.00011   2.07243
    A9        2.06017   0.00000   0.00000  -0.00016  -0.00016   2.06000
   A10        2.12571  -0.00002   0.00000   0.00049   0.00049   2.12620
   A11        2.06028   0.00001   0.00000  -0.00025  -0.00025   2.06003
   A12        2.07250   0.00001   0.00000  -0.00009  -0.00009   2.07241
   A13        1.77525   0.00006   0.00000   0.00092   0.00091   1.77616
   A14        2.09556  -0.00001   0.00000  -0.00004  -0.00004   2.09552
   A15        2.10936  -0.00002   0.00000  -0.00009  -0.00009   2.10926
   A16        1.81624   0.00002   0.00000   0.00069   0.00070   1.81693
   A17        1.47801  -0.00000   0.00000  -0.00190  -0.00191   1.47610
   A18        2.00153   0.00000   0.00000   0.00019   0.00019   2.00173
   A19        1.90360   0.00000   0.00000  -0.00000  -0.00001   1.90359
   A20        1.58082   0.00004   0.00000  -0.00081  -0.00081   1.58001
   A21        1.58754   0.00000   0.00000   0.00050   0.00050   1.58804
   A22        2.09416  -0.00003   0.00000   0.00008   0.00008   2.09424
   A23        2.09546   0.00001   0.00000   0.00006   0.00006   2.09553
   A24        2.01446   0.00000   0.00000  -0.00002  -0.00002   2.01445
   A25        1.90365  -0.00001   0.00000  -0.00024  -0.00025   1.90340
   A26        1.57813   0.00005   0.00000   0.00152   0.00152   1.57964
   A27        1.59048   0.00000   0.00000  -0.00245  -0.00244   1.58804
   A28        2.09450  -0.00003   0.00000  -0.00017  -0.00017   2.09434
   A29        2.09512   0.00000   0.00000   0.00047   0.00047   2.09559
   A30        2.01432   0.00000   0.00000   0.00019   0.00019   2.01452
   A31        1.48668  -0.00001   0.00000  -0.00097  -0.00097   1.48572
   A32        1.48235  -0.00000   0.00000   0.00374   0.00374   1.48608
   A33        1.38472  -0.00005   0.00000   0.00035   0.00034   1.38506
   A34        1.38555  -0.00004   0.00000  -0.00088  -0.00089   1.38466
    D1       -1.02172   0.00004   0.00000  -0.00001  -0.00001  -1.02173
    D2        1.87874   0.00003   0.00000   0.00000   0.00000   1.87874
    D3        0.56213   0.00006   0.00000  -0.00069  -0.00069   0.56144
    D4       -2.82060   0.00005   0.00000  -0.00067  -0.00067  -2.82128
    D5       -3.01154  -0.00003   0.00000  -0.00146  -0.00146  -3.01301
    D6       -0.11109  -0.00004   0.00000  -0.00145  -0.00145  -0.11254
    D7        0.86981  -0.00001   0.00000   0.00408   0.00408   0.87389
    D8        3.00193  -0.00002   0.00000   0.00383   0.00383   3.00576
    D9       -1.26652  -0.00002   0.00000   0.00380   0.00380  -1.26272
   D10       -1.23283   0.00003   0.00000   0.00502   0.00502  -1.22781
   D11        0.89929   0.00001   0.00000   0.00477   0.00477   0.90406
   D12        2.91403   0.00002   0.00000   0.00474   0.00474   2.91877
   D13        3.05855   0.00002   0.00000   0.00483   0.00483   3.06338
   D14       -1.09252   0.00000   0.00000   0.00458   0.00458  -1.08794
   D15        0.92221   0.00001   0.00000   0.00456   0.00456   0.92677
   D16       -2.12252  -0.00008   0.00000  -0.00154  -0.00153  -2.12405
   D17       -0.36867  -0.00001   0.00000  -0.00127  -0.00127  -0.36994
   D18        1.42936   0.00001   0.00000  -0.00077  -0.00077   1.42860
   D19        0.00114  -0.00001   0.00000  -0.00122  -0.00122  -0.00008
   D20        2.90272  -0.00002   0.00000  -0.00054  -0.00054   2.90219
   D21       -2.90092   0.00001   0.00000  -0.00127  -0.00127  -2.90220
   D22        0.00066  -0.00000   0.00000  -0.00059  -0.00059   0.00007
   D23        1.02287  -0.00004   0.00000  -0.00129  -0.00129   1.02158
   D24        3.01258   0.00002   0.00000   0.00023   0.00023   3.01281
   D25       -0.56158  -0.00007   0.00000   0.00044   0.00044  -0.56114
   D26       -1.87709  -0.00003   0.00000  -0.00196  -0.00196  -1.87905
   D27        0.11263   0.00003   0.00000  -0.00044  -0.00044   0.11218
   D28        2.82165  -0.00006   0.00000  -0.00023  -0.00023   2.82142
   D29       -0.87938   0.00002   0.00000   0.00554   0.00554  -0.87384
   D30       -3.01076   0.00003   0.00000   0.00515   0.00515  -3.00562
   D31        1.25783   0.00003   0.00000   0.00496   0.00496   1.26279
   D32       -3.06818   0.00000   0.00000   0.00486   0.00486  -3.06332
   D33        1.08362   0.00001   0.00000   0.00447   0.00447   1.08809
   D34       -0.93097   0.00000   0.00000   0.00428   0.00428  -0.92669
   D35        1.22286   0.00000   0.00000   0.00510   0.00510   1.22796
   D36       -0.90853   0.00001   0.00000   0.00471   0.00471  -0.90382
   D37       -2.92312   0.00000   0.00000   0.00452   0.00452  -2.91859
   D38        2.12539   0.00007   0.00000  -0.00182  -0.00182   2.12357
   D39        0.37165   0.00000   0.00000  -0.00176  -0.00176   0.36988
   D40       -1.42692  -0.00002   0.00000  -0.00167  -0.00167  -1.42859
   D41        0.00525  -0.00001   0.00000  -0.00527  -0.00527  -0.00002
   D42        1.78620   0.00004   0.00000  -0.00362  -0.00362   1.78258
   D43       -1.79145  -0.00001   0.00000  -0.00227  -0.00227  -1.79372
   D44       -1.77885  -0.00005   0.00000  -0.00429  -0.00429  -1.78315
   D45        0.00209   0.00000   0.00000  -0.00264  -0.00264  -0.00055
   D46        2.70763  -0.00005   0.00000  -0.00130  -0.00129   2.70633
   D47        1.79840   0.00000   0.00000  -0.00462  -0.00462   1.79378
   D48       -2.70384   0.00006   0.00000  -0.00297  -0.00297  -2.70681
   D49        0.00170   0.00000   0.00000  -0.00162  -0.00162   0.00008
   D50       -0.37168  -0.00002   0.00000  -0.00129  -0.00128  -0.37296
   D51        1.59214   0.00000   0.00000  -0.00178  -0.00178   1.59036
   D52       -1.96578  -0.00004   0.00000  -0.00145  -0.00145  -1.96723
   D53        0.37462   0.00001   0.00000  -0.00174  -0.00175   0.37288
   D54       -1.58765  -0.00001   0.00000  -0.00237  -0.00236  -1.59001
   D55        1.97070   0.00004   0.00000  -0.00373  -0.00373   1.96697
   D56        0.86429  -0.00000   0.00000   0.00458   0.00458   0.86887
   D57       -0.87260   0.00003   0.00000   0.00369   0.00370  -0.86891
         Item               Value     Threshold  Converged?
 Maximum Force            0.000230     0.000450     YES
 RMS     Force            0.000048     0.000300     YES
 Maximum Displacement     0.009260     0.001800     NO 
 RMS     Displacement     0.002562     0.001200     NO 
 Predicted change in Energy= 5.769061D-09
 GradGradGradGradGradGradGradGradGradGradGradGradGradGradGradGradGradGrad

                          Input orientation:                          
 ---------------------------------------------------------------------
 Center     Atomic      Atomic             Coordinates (Angstroms)
 Number     Number       Type             X           Y           Z
 ---------------------------------------------------------------------
      1          6           0       -1.206522   -0.357295   -2.535433
      2          6           0       -2.435802   -0.080989   -1.981699
      3          6           0       -2.638001   -0.075879   -0.589354
      4          6           0       -1.617370   -0.346993    0.293130
      5          6           0        0.090575    1.248827   -1.606031
      6          6           0       -0.107435    1.254047   -0.241110
      7          1           0       -0.521574   -1.045546   -2.053014
      8          1           0       -1.051526   -0.237104   -3.604335
      9          1           0       -3.206999    0.356969   -2.611956
     10          1           0       -3.556180    0.365727   -0.207634
     11          1           0       -1.772592   -0.218800    1.361067
     12          1           0       -0.824049   -1.037799    0.030484
     13          1           0        0.625773    0.795296    0.415637
     14          1           0       -0.727393    2.017276    0.214761
     15          1           0        0.979966    0.786391   -2.023777
     16          1           0       -0.373434    2.008022   -2.224914
 ---------------------------------------------------------------------
                    Distance matrix (angstroms):
                    1          2          3          4          5
     1  C    0.000000
     2  C    1.376261   0.000000
     3  C    2.432191   1.406960   0.000000
     4  C    2.858263   2.432167   1.376215   0.000000
     5  C    2.264039   2.879604   3.199001   3.011731   0.000000
     6  C    3.011366   3.198947   2.879886   2.264651   1.379219
     7  H    1.084237   2.144697   2.749876   2.682002   2.416333
     8  H    1.086748   2.138584   3.410720   3.939859   2.739636
     9  H    2.125545   1.088015   2.145236   3.385558   3.561080
    10  H    3.385602   2.145253   1.088016   2.125492   4.004272
    11  H    3.939839   3.410708   2.138575   1.086747   3.798551
    12  H    2.682032   2.749930   2.144740   1.084230   2.956920
    13  H    3.659861   3.986018   3.524369   2.520223   2.139923
    14  H    3.664931   3.485085   2.945900   2.527443   2.138894
    15  H    2.520027   3.524428   3.986322   3.660433   1.085991
    16  H    2.526892   2.945587   3.485107   3.665245   1.083835
                    6          7          8          9         10
     6  C    0.000000
     7  H    2.956794   0.000000
     8  H    3.798173   1.827847   0.000000
     9  H    4.004117   3.080742   2.446182   0.000000
    10  H    3.561471   3.821773   4.263130   2.429561   0.000000
    11  H    2.740255   3.728875   5.017519   4.263091   2.446157
    12  H    2.416579   2.105353   3.728909   3.821821   3.080767
    13  H    1.085985   3.286235   4.476534   4.903937   4.249909
    14  H    1.083829   3.816549   4.446660   4.110401   3.302737
    15  H    2.139870   2.368854   2.769957   4.249828   4.904279
    16  H    2.138858   3.061988   2.720883   3.302252   4.110526
                   11         12         13         14         15
    11  H    0.000000
    12  H    1.827826   0.000000
    13  H    2.770268   2.368663   0.000000
    14  H    2.721488   3.062154   1.834297   0.000000
    15  H    4.477070   3.286659   2.465009   3.072654   0.000000
    16  H    4.446982   3.816661   3.072724   2.465236   1.834266
                   16
    16  H    0.000000
 Stoichiometry    C6H10
 Framework group  C1[X(C6H10)]
 Deg. of freedom    42
 Full point group                 C1      NOp   1
 Largest Abelian subgroup         C1      NOp   1
 Largest concise Abelian subgroup C1      NOp   1
                         Standard orientation:                         
 ---------------------------------------------------------------------
 Center     Atomic      Atomic             Coordinates (Angstroms)
 Number     Number       Type             X           Y           Z
 ---------------------------------------------------------------------
      1          6           0        0.446416    1.429287    0.494383
      2          6           0        1.311674    0.704219   -0.292829
      3          6           0        1.312588   -0.702740   -0.292864
      4          6           0        0.448380   -1.428976    0.494342
      5          6           0       -1.567178    0.688826   -0.228826
      6          6           0       -1.566562   -0.690393   -0.228947
      7          1           0        0.123749    1.052581    1.458514
      8          1           0        0.386168    2.508888    0.385515
      9          1           0        1.847944    1.215876   -1.089319
     10          1           0        1.849573   -1.213684   -1.089333
     11          1           0        0.389373   -2.508629    0.385326
     12          1           0        0.124986   -1.052772    1.458418
     13          1           0       -2.063133   -1.233623    0.569603
     14          1           0       -1.452349   -1.233299   -1.160018
     15          1           0       -2.064702    1.231386    0.569593
     16          1           0       -1.453515    1.231937   -1.159852
 ---------------------------------------------------------------------
 Rotational constants (GHZ):           4.3642375           3.4957013           2.2823806
 Standard basis: 6-31G(d) (6D, 7F)
 There are   110 symmetry adapted cartesian basis functions of A   symmetry.
 There are   110 symmetry adapted basis functions of A   symmetry.
   110 basis functions,   208 primitive gaussians,   110 cartesian basis functions
    23 alpha electrons       23 beta electrons
       nuclear repulsion energy       224.8455156258 Hartrees.
 NAtoms=   16 NActive=   16 NUniq=   16 SFac= 1.00D+00 NAtFMM=   60 NAOKFM=F Big=F
 Integral buffers will be    131072 words long.
 Raffenetti 2 integral format.
 Two-electron integral symmetry is turned on.
 Nuclear repulsion after empirical dispersion term =      224.8363508851 Hartrees.
 One-electron integrals computed using PRISM.
 NBasis=   110 RedAO= T EigKep=  2.22D-03  NBF=   110
 NBsUse=   110 1.00D-06 EigRej= -1.00D+00 NBFU=   110
 Initial guess from the checkpoint file:  "/home/avrubio/scratches/g16/4126/Gau-2452789.chk"
 B after Tr=    -0.000000   -0.000000    0.000000
         Rot=    1.000000   -0.000120   -0.000098   -0.000750 Ang=  -0.09 deg.
 Requested convergence on RMS density matrix=1.00D-08 within 128 cycles.
 Requested convergence on MAX density matrix=1.00D-06.
 Requested convergence on             energy=1.00D-06.
 No special actions if energy rises.
 SCF Done:  E(RwB97XD) =  -234.456842445     A.U. after    9 cycles
            NFock=  9  Conv=0.76D-08     -V/T= 2.0099
 Calling FoFJK, ICntrl=      2127 FMM=F ISym2X=0 I1Cent= 0 IOpClX= 0 NMat=1 NMatS=1 NMatT=0.
 ***** Axes restored to original set *****
 -------------------------------------------------------------------
 Center     Atomic                   Forces (Hartrees/Bohr)
 Number     Number              X              Y              Z
 -------------------------------------------------------------------
      1        6          -0.000010477    0.000003838    0.000012451
      2        6           0.000001670   -0.000000639   -0.000003483
      3        6          -0.000009271   -0.000001592   -0.000014298
      4        6           0.000025407    0.000024160    0.000011292
      5        6          -0.000001359    0.000000056   -0.000010263
      6        6          -0.000015110   -0.000027639    0.000012373
      7        1           0.000001572    0.000001869   -0.000010187
      8        1           0.000001863   -0.000001457    0.000002817
      9        1           0.000001043   -0.000002906   -0.000000332
     10        1           0.000001511   -0.000000107   -0.000002052
     11        1          -0.000002645   -0.000003476   -0.000001713
     12        1          -0.000002690    0.000000230    0.000000872
     13        1           0.000010767    0.000012921   -0.000002606
     14        1          -0.000004475   -0.000004510    0.000001451
     15        1          -0.000003469   -0.000004526   -0.000000411
     16        1           0.000005664    0.000003778    0.000004089
 -------------------------------------------------------------------
 Cartesian Forces:  Max     0.000027639 RMS     0.000008891

 GradGradGradGradGradGradGradGradGradGradGradGradGradGradGradGradGradGrad
 Berny optimization.
 FormGI is forming the generalized inverse of G from B-inverse, IUseBI=4.
 Internal  Forces:  Max     0.000016440 RMS     0.000003365
 Search for a saddle point.
 Step number   3 out of a maximum of  100
 All quantities printed in internal units (Hartrees-Bohrs-Radians)
 Swapping is turned off.
 Update second derivatives using D2CorX and points    1    2    3
 ITU=  0  0  0
     Eigenvalues ---   -0.03891   0.00145   0.00599   0.00736   0.01013
     Eigenvalues ---    0.01375   0.01520   0.01744   0.01930   0.02221
     Eigenvalues ---    0.02291   0.02300   0.02576   0.02842   0.02952
     Eigenvalues ---    0.03655   0.04465   0.04623   0.05082   0.05174
     Eigenvalues ---    0.05755   0.05861   0.05977   0.07091   0.10743
     Eigenvalues ---    0.12501   0.12514   0.16231   0.31951   0.32631
     Eigenvalues ---    0.34443   0.35428   0.36676   0.36864   0.37460
     Eigenvalues ---    0.37504   0.37628   0.37992   0.38106   0.48152
     Eigenvalues ---    0.48426   0.53192
 Eigenvectors required to have negative eigenvalues:
                          R2        R9        D46       D48       D25
   1                   -0.54248  -0.53727  -0.17187   0.16805  -0.16211
                          D3        D28       D4        A31       D52
   1                    0.16211  -0.14017   0.13970  -0.12941  -0.12719
 RFO step:  Lambda0=6.281951615D-09 Lambda=-3.14213945D-08.
 Linear search not attempted -- option 19 set.
 Iteration  1 RMS(Cart)=  0.00014453 RMS(Int)=  0.00000002
 Iteration  2 RMS(Cart)=  0.00000002 RMS(Int)=  0.00000001
 Variable       Old X    -DE/DX   Delta X   Delta X   Delta X     New X
                                 (Linear)    (Quad)   (Total)
    R1        2.60076  -0.00001   0.00000  -0.00008  -0.00008   2.60068
    R2        4.27841   0.00000   0.00000   0.00097   0.00097   4.27939
    R3        2.04891  -0.00000   0.00000  -0.00002  -0.00002   2.04889
    R4        2.05366  -0.00000   0.00000  -0.00001  -0.00001   2.05365
    R5        2.65877  -0.00000   0.00000   0.00003   0.00003   2.65879
    R6        2.05605  -0.00000   0.00000  -0.00000  -0.00000   2.05605
    R7        2.60067   0.00002   0.00000   0.00002   0.00002   2.60069
    R8        2.05605  -0.00000   0.00000  -0.00000  -0.00000   2.05605
    R9        4.27957  -0.00002   0.00000  -0.00057  -0.00057   4.27900
   R10        2.05365  -0.00000   0.00000  -0.00000  -0.00000   2.05365
   R11        2.04890  -0.00000   0.00000  -0.00000  -0.00000   2.04890
   R12        2.60635   0.00001   0.00000  -0.00003  -0.00003   2.60632
   R13        2.05222  -0.00000   0.00000  -0.00001  -0.00001   2.05222
   R14        2.04815  -0.00000   0.00000  -0.00001  -0.00001   2.04814
   R15        2.05221  -0.00000   0.00000   0.00001   0.00001   2.05222
   R16        2.04814  -0.00000   0.00000   0.00000   0.00000   2.04814
   R17        4.47649  -0.00000   0.00000  -0.00010  -0.00010   4.47638
   R18        4.47613  -0.00000   0.00000   0.00018   0.00018   4.47630
    A1        1.77638   0.00000   0.00000  -0.00012  -0.00012   1.77626
    A2        2.10911   0.00000   0.00000   0.00012   0.00012   2.10923
    A3        2.09547  -0.00000   0.00000   0.00004   0.00004   2.09551
    A4        1.47639  -0.00000   0.00000  -0.00030  -0.00030   1.47610
    A5        1.81687   0.00000   0.00000   0.00007   0.00007   1.81693
    A6        2.00175  -0.00000   0.00000  -0.00002  -0.00002   2.00173
    A7        2.12617   0.00000   0.00000   0.00005   0.00005   2.12623
    A8        2.07243  -0.00000   0.00000  -0.00002  -0.00002   2.07241
    A9        2.06000   0.00000   0.00000  -0.00001  -0.00001   2.06000
   A10        2.12620   0.00000   0.00000   0.00002   0.00002   2.12621
   A11        2.06003  -0.00000   0.00000  -0.00004  -0.00004   2.06000
   A12        2.07241   0.00000   0.00000  -0.00000  -0.00000   2.07241
   A13        1.77616   0.00000   0.00000   0.00016   0.00016   1.77632
   A14        2.09552   0.00000   0.00000  -0.00005  -0.00005   2.09548
   A15        2.10926  -0.00000   0.00000  -0.00004  -0.00004   2.10922
   A16        1.81693   0.00000   0.00000  -0.00001  -0.00001   1.81692
   A17        1.47610   0.00000   0.00000   0.00010   0.00010   1.47620
   A18        2.00173   0.00000   0.00000  -0.00002  -0.00002   2.00171
   A19        1.90359   0.00000   0.00000  -0.00012  -0.00012   1.90347
   A20        1.58001   0.00000   0.00000  -0.00014  -0.00014   1.57987
   A21        1.58804   0.00000   0.00000  -0.00014  -0.00014   1.58790
   A22        2.09424   0.00000   0.00000   0.00005   0.00005   2.09430
   A23        2.09553  -0.00000   0.00000   0.00006   0.00006   2.09558
   A24        2.01445   0.00000   0.00000   0.00006   0.00006   2.01450
   A25        1.90340   0.00000   0.00000   0.00013   0.00013   1.90353
   A26        1.57964   0.00001   0.00000   0.00023   0.00023   1.57988
   A27        1.58804  -0.00000   0.00000  -0.00005  -0.00005   1.58799
   A28        2.09434  -0.00000   0.00000  -0.00007  -0.00007   2.09427
   A29        2.09559  -0.00000   0.00000  -0.00003  -0.00003   2.09556
   A30        2.01452  -0.00000   0.00000  -0.00003  -0.00003   2.01448
   A31        1.48572   0.00000   0.00000   0.00038   0.00038   1.48609
   A32        1.48608  -0.00000   0.00000  -0.00012  -0.00012   1.48596
   A33        1.38506  -0.00001   0.00000  -0.00024  -0.00024   1.38482
   A34        1.38466  -0.00000   0.00000   0.00020   0.00020   1.38486
    D1       -1.02173   0.00000   0.00000   0.00014   0.00014  -1.02159
    D2        1.87874   0.00000   0.00000   0.00025   0.00025   1.87900
    D3        0.56144   0.00000   0.00000  -0.00026  -0.00026   0.56118
    D4       -2.82128   0.00000   0.00000  -0.00014  -0.00014  -2.82142
    D5       -3.01301   0.00000   0.00000   0.00013   0.00013  -3.01288
    D6       -0.11254   0.00000   0.00000   0.00024   0.00024  -0.11230
    D7        0.87389   0.00000   0.00000  -0.00014  -0.00014   0.87375
    D8        3.00576   0.00000   0.00000  -0.00016  -0.00016   3.00560
    D9       -1.26272   0.00000   0.00000  -0.00011  -0.00011  -1.26283
   D10       -1.22781  -0.00000   0.00000  -0.00021  -0.00021  -1.22802
   D11        0.90406  -0.00000   0.00000  -0.00023  -0.00023   0.90382
   D12        2.91877  -0.00000   0.00000  -0.00018  -0.00018   2.91859
   D13        3.06338   0.00000   0.00000  -0.00012  -0.00012   3.06326
   D14       -1.08794   0.00000   0.00000  -0.00014  -0.00014  -1.08808
   D15        0.92677   0.00000   0.00000  -0.00009  -0.00009   0.92668
   D16       -2.12405  -0.00000   0.00000   0.00039   0.00039  -2.12366
   D17       -0.36994   0.00000   0.00000   0.00008   0.00008  -0.36986
   D18        1.42860   0.00000   0.00000   0.00001   0.00001   1.42861
   D19       -0.00008   0.00000   0.00000   0.00013   0.00013   0.00005
   D20        2.90219   0.00000   0.00000   0.00004   0.00004   2.90223
   D21       -2.90220   0.00000   0.00000   0.00002   0.00002  -2.90218
   D22        0.00007   0.00000   0.00000  -0.00007  -0.00007   0.00000
   D23        1.02158  -0.00000   0.00000   0.00004   0.00004   1.02163
   D24        3.01281   0.00000   0.00000   0.00012   0.00012   3.01293
   D25       -0.56114  -0.00000   0.00000  -0.00016  -0.00016  -0.56130
   D26       -1.87905   0.00000   0.00000   0.00014   0.00014  -1.87891
   D27        0.11218   0.00000   0.00000   0.00021   0.00021   0.11240
   D28        2.82142  -0.00000   0.00000  -0.00007  -0.00007   2.82135
   D29       -0.87384   0.00000   0.00000  -0.00002  -0.00002  -0.87386
   D30       -3.00562   0.00000   0.00000  -0.00007  -0.00007  -3.00569
   D31        1.26279   0.00000   0.00000  -0.00004  -0.00004   1.26275
   D32       -3.06332   0.00000   0.00000  -0.00003  -0.00003  -3.06336
   D33        1.08809   0.00000   0.00000  -0.00008  -0.00008   1.08800
   D34       -0.92669   0.00000   0.00000  -0.00006  -0.00006  -0.92674
   D35        1.22796   0.00000   0.00000  -0.00004  -0.00004   1.22792
   D36       -0.90382  -0.00000   0.00000  -0.00009  -0.00009  -0.90391
   D37       -2.91859   0.00000   0.00000  -0.00006  -0.00006  -2.91866
   D38        2.12357   0.00000   0.00000   0.00026   0.00026   2.12383
   D39        0.36988   0.00000   0.00000   0.00002   0.00002   0.36990
   D40       -1.42859  -0.00000   0.00000  -0.00001  -0.00001  -1.42860
   D41       -0.00002  -0.00000   0.00000   0.00007   0.00007   0.00006
   D42        1.78258   0.00001   0.00000   0.00042   0.00042   1.78300
   D43       -1.79372   0.00000   0.00000   0.00007   0.00007  -1.79366
   D44       -1.78315  -0.00000   0.00000   0.00030   0.00030  -1.78285
   D45       -0.00055   0.00001   0.00000   0.00064   0.00064   0.00009
   D46        2.70633   0.00000   0.00000   0.00029   0.00029   2.70662
   D47        1.79378   0.00000   0.00000  -0.00015  -0.00015   1.79363
   D48       -2.70681   0.00001   0.00000   0.00019   0.00019  -2.70661
   D49        0.00008   0.00000   0.00000  -0.00016  -0.00016  -0.00008
   D50       -0.37296   0.00000   0.00000   0.00009   0.00009  -0.37287
   D51        1.59036   0.00000   0.00000  -0.00012  -0.00012   1.59023
   D52       -1.96723  -0.00000   0.00000   0.00031   0.00031  -1.96692
   D53        0.37288   0.00000   0.00000   0.00003   0.00003   0.37291
   D54       -1.59001  -0.00000   0.00000  -0.00025  -0.00025  -1.59026
   D55        1.96697   0.00000   0.00000   0.00008   0.00008   1.96706
   D56        0.86887  -0.00000   0.00000  -0.00003  -0.00003   0.86884
   D57       -0.86891   0.00000   0.00000   0.00004   0.00004  -0.86886
         Item               Value     Threshold  Converged?
 Maximum Force            0.000016     0.000450     YES
 RMS     Force            0.000003     0.000300     YES
 Maximum Displacement     0.000464     0.001800     YES
 RMS     Displacement     0.000145     0.001200     YES
 Predicted change in Energy=-1.256973D-08
 Optimization completed.
    -- Stationary point found.
                           ----------------------------
                           !   Optimized Parameters   !
                           ! (Angstroms and Degrees)  !
 --------------------------                            --------------------------
 ! Name  Definition              Value          Derivative Info.                !
 --------------------------------------------------------------------------------
 ! R1    R(1,2)                  1.3763         -DE/DX =    0.0                 !
 ! R2    R(1,5)                  2.264          -DE/DX =    0.0                 !
 ! R3    R(1,7)                  1.0842         -DE/DX =    0.0                 !
 ! R4    R(1,8)                  1.0867         -DE/DX =    0.0                 !
 ! R5    R(2,3)                  1.407          -DE/DX =    0.0                 !
 ! R6    R(2,9)                  1.088          -DE/DX =    0.0                 !
 ! R7    R(3,4)                  1.3762         -DE/DX =    0.0                 !
 ! R8    R(3,10)                 1.088          -DE/DX =    0.0                 !
 ! R9    R(4,6)                  2.2647         -DE/DX =    0.0                 !
 ! R10   R(4,11)                 1.0867         -DE/DX =    0.0                 !
 ! R11   R(4,12)                 1.0842         -DE/DX =    0.0                 !
 ! R12   R(5,6)                  1.3792         -DE/DX =    0.0                 !
 ! R13   R(5,15)                 1.086          -DE/DX =    0.0                 !
 ! R14   R(5,16)                 1.0838         -DE/DX =    0.0                 !
 ! R15   R(6,13)                 1.086          -DE/DX =    0.0                 !
 ! R16   R(6,14)                 1.0838         -DE/DX =    0.0                 !
 ! R17   R(7,15)                 2.3689         -DE/DX =    0.0                 !
 ! R18   R(12,13)                2.3687         -DE/DX =    0.0                 !
 ! A1    A(2,1,5)              101.779          -DE/DX =    0.0                 !
 ! A2    A(2,1,7)              120.843          -DE/DX =    0.0                 !
 ! A3    A(2,1,8)              120.0613         -DE/DX =    0.0                 !
 ! A4    A(5,1,7)               84.5912         -DE/DX =    0.0                 !
 ! A5    A(5,1,8)              104.0989         -DE/DX =    0.0                 !
 ! A6    A(7,1,8)              114.6917         -DE/DX =    0.0                 !
 ! A7    A(1,2,3)              121.8206         -DE/DX =    0.0                 !
 ! A8    A(1,2,9)              118.7415         -DE/DX =    0.0                 !
 ! A9    A(3,2,9)              118.0296         -DE/DX =    0.0                 !
 ! A10   A(2,3,4)              121.822          -DE/DX =    0.0                 !
 ! A11   A(2,3,10)             118.0311         -DE/DX =    0.0                 !
 ! A12   A(4,3,10)             118.7404         -DE/DX =    0.0                 !
 ! A13   A(3,4,6)              101.7666         -DE/DX =    0.0                 !
 ! A14   A(3,4,11)             120.0646         -DE/DX =    0.0                 !
 ! A15   A(3,4,12)             120.8518         -DE/DX =    0.0                 !
 ! A16   A(6,4,11)             104.1026         -DE/DX =    0.0                 !
 ! A17   A(6,4,12)              84.5743         -DE/DX =    0.0                 !
 ! A18   A(11,4,12)            114.6904         -DE/DX =    0.0                 !
 ! A19   A(1,5,6)              109.0676         -DE/DX =    0.0                 !
 ! A20   A(1,5,15)              90.5277         -DE/DX =    0.0                 !
 ! A21   A(1,5,16)              90.9878         -DE/DX =    0.0                 !
 ! A22   A(6,5,15)             119.9913         -DE/DX =    0.0                 !
 ! A23   A(6,5,16)             120.0648         -DE/DX =    0.0                 !
 ! A24   A(15,5,16)            115.4192         -DE/DX =    0.0                 !
 ! A25   A(4,6,5)              109.0568         -DE/DX =    0.0                 !
 ! A26   A(4,6,13)              90.5069         -DE/DX =    0.0                 !
 ! A27   A(4,6,14)              90.9879         -DE/DX =    0.0                 !
 ! A28   A(5,6,13)             119.9967         -DE/DX =    0.0                 !
 ! A29   A(5,6,14)             120.0687         -DE/DX =    0.0                 !
 ! A30   A(13,6,14)            115.4233         -DE/DX =    0.0                 !
 ! A31   A(1,7,15)              85.1254         -DE/DX =    0.0                 !
 ! A32   A(4,12,13)             85.1463         -DE/DX =    0.0                 !
 ! A33   A(6,13,12)             79.358          -DE/DX =    0.0                 !
 ! A34   A(5,15,7)              79.3351         -DE/DX =    0.0                 !
 ! D1    D(5,1,2,3)            -58.5406         -DE/DX =    0.0                 !
 ! D2    D(5,1,2,9)            107.644          -DE/DX =    0.0                 !
 ! D3    D(7,1,2,3)             32.1682         -DE/DX =    0.0                 !
 ! D4    D(7,1,2,9)           -161.6472         -DE/DX =    0.0                 !
 ! D5    D(8,1,2,3)           -172.6325         -DE/DX =    0.0                 !
 ! D6    D(8,1,2,9)             -6.4478         -DE/DX =    0.0                 !
 ! D7    D(2,1,5,6)             50.0703         -DE/DX =    0.0                 !
 ! D8    D(2,1,5,15)           172.2172         -DE/DX =    0.0                 !
 ! D9    D(2,1,5,16)           -72.3483         -DE/DX =    0.0                 !
 ! D10   D(7,1,5,6)            -70.3483         -DE/DX =    0.0                 !
 ! D11   D(7,1,5,15)            51.7986         -DE/DX =    0.0                 !
 ! D12   D(7,1,5,16)           167.2331         -DE/DX =    0.0                 !
 ! D13   D(8,1,5,6)            175.5187         -DE/DX =    0.0                 !
 ! D14   D(8,1,5,15)           -62.3344         -DE/DX =    0.0                 !
 ! D15   D(8,1,5,16)            53.1001         -DE/DX =    0.0                 !
 ! D16   D(2,1,7,15)          -121.699          -DE/DX =    0.0                 !
 ! D17   D(5,1,7,15)           -21.1959         -DE/DX =    0.0                 !
 ! D18   D(8,1,7,15)            81.8526         -DE/DX =    0.0                 !
 ! D19   D(1,2,3,4)             -0.0046         -DE/DX =    0.0                 !
 ! D20   D(1,2,3,10)           166.283          -DE/DX =    0.0                 !
 ! D21   D(9,2,3,4)           -166.2836         -DE/DX =    0.0                 !
 ! D22   D(9,2,3,10)             0.004          -DE/DX =    0.0                 !
 ! D23   D(2,3,4,6)             58.5323         -DE/DX =    0.0                 !
 ! D24   D(2,3,4,11)           172.6214         -DE/DX =    0.0                 !
 ! D25   D(2,3,4,12)           -32.1509         -DE/DX =    0.0                 !
 ! D26   D(10,3,4,6)          -107.6614         -DE/DX =    0.0                 !
 ! D27   D(10,3,4,11)            6.4277         -DE/DX =    0.0                 !
 ! D28   D(10,3,4,12)          161.6554         -DE/DX =    0.0                 !
 ! D29   D(3,4,6,5)            -50.0675         -DE/DX =    0.0                 !
 ! D30   D(3,4,6,13)          -172.2092         -DE/DX =    0.0                 !
 ! D31   D(3,4,6,14)            72.3527         -DE/DX =    0.0                 !
 ! D32   D(11,4,6,5)          -175.5155         -DE/DX =    0.0                 !
 ! D33   D(11,4,6,13)           62.3428         -DE/DX =    0.0                 !
 ! D34   D(11,4,6,14)          -53.0953         -DE/DX =    0.0                 !
 ! D35   D(12,4,6,5)            70.3567         -DE/DX =    0.0                 !
 ! D36   D(12,4,6,13)          -51.785          -DE/DX =    0.0                 !
 ! D37   D(12,4,6,14)         -167.223          -DE/DX =    0.0                 !
 ! D38   D(3,4,12,13)          121.6716         -DE/DX =    0.0                 !
 ! D39   D(6,4,12,13)           21.1928         -DE/DX =    0.0                 !
 ! D40   D(11,4,12,13)         -81.8521         -DE/DX =    0.0                 !
 ! D41   D(1,5,6,4)             -0.0009         -DE/DX =    0.0                 !
 ! D42   D(1,5,6,13)           102.1343         -DE/DX =    0.0                 !
 ! D43   D(1,5,6,14)          -102.7727         -DE/DX =    0.0                 !
 ! D44   D(15,5,6,4)          -102.1667         -DE/DX =    0.0                 !
 ! D45   D(15,5,6,13)           -0.0315         -DE/DX =    0.0                 !
 ! D46   D(15,5,6,14)          155.0615         -DE/DX =    0.0                 !
 ! D47   D(16,5,6,4)           102.7762         -DE/DX =    0.0                 !
 ! D48   D(16,5,6,13)         -155.0887         -DE/DX =    0.0                 !
 ! D49   D(16,5,6,14)            0.0044         -DE/DX =    0.0                 !
 ! D50   D(1,5,15,7)           -21.3692         -DE/DX =    0.0                 !
 ! D51   D(6,5,15,7)            91.1207         -DE/DX =    0.0                 !
 ! D52   D(16,5,15,7)         -112.7139         -DE/DX =    0.0                 !
 ! D53   D(4,6,13,12)           21.3644         -DE/DX =    0.0                 !
 ! D54   D(5,6,13,12)          -91.101          -DE/DX =    0.0                 !
 ! D55   D(14,6,13,12)         112.6993         -DE/DX =    0.0                 !
 ! D56   D(1,7,15,5)            49.7825         -DE/DX =    0.0                 !
 ! D57   D(4,12,13,6)          -49.7847         -DE/DX =    0.0                 !
 --------------------------------------------------------------------------------
 GradGradGradGradGradGradGradGradGradGradGradGradGradGradGradGradGradGrad

                          Input orientation:                          
 ---------------------------------------------------------------------
 Center     Atomic      Atomic             Coordinates (Angstroms)
 Number     Number       Type             X           Y           Z
 ---------------------------------------------------------------------
      1          6           0       -1.206522   -0.357295   -2.535433
      2          6           0       -2.435802   -0.080989   -1.981699
      3          6           0       -2.638001   -0.075879   -0.589354
      4          6           0       -1.617370   -0.346993    0.293130
      5          6           0        0.090575    1.248827   -1.606031
      6          6           0       -0.107435    1.254047   -0.241110
      7          1           0       -0.521574   -1.045546   -2.053014
      8          1           0       -1.051526   -0.237104   -3.604335
      9          1           0       -3.206999    0.356969   -2.611956
     10          1           0       -3.556180    0.365727   -0.207634
     11          1           0       -1.772592   -0.218800    1.361067
     12          1           0       -0.824049   -1.037799    0.030484
     13          1           0        0.625773    0.795296    0.415637
     14          1           0       -0.727393    2.017276    0.214761
     15          1           0        0.979966    0.786391   -2.023777
     16          1           0       -0.373434    2.008022   -2.224914
 ---------------------------------------------------------------------
                    Distance matrix (angstroms):
                    1          2          3          4          5
     1  C    0.000000
     2  C    1.376261   0.000000
     3  C    2.432191   1.406960   0.000000
     4  C    2.858263   2.432167   1.376215   0.000000
     5  C    2.264039   2.879604   3.199001   3.011731   0.000000
     6  C    3.011366   3.198947   2.879886   2.264651   1.379219
     7  H    1.084237   2.144697   2.749876   2.682002   2.416333
     8  H    1.086748   2.138584   3.410720   3.939859   2.739636
     9  H    2.125545   1.088015   2.145236   3.385558   3.561080
    10  H    3.385602   2.145253   1.088016   2.125492   4.004272
    11  H    3.939839   3.410708   2.138575   1.086747   3.798551
    12  H    2.682032   2.749930   2.144740   1.084230   2.956920
    13  H    3.659861   3.986018   3.524369   2.520223   2.139923
    14  H    3.664931   3.485085   2.945900   2.527443   2.138894
    15  H    2.520027   3.524428   3.986322   3.660433   1.085991
    16  H    2.526892   2.945587   3.485107   3.665245   1.083835
                    6          7          8          9         10
     6  C    0.000000
     7  H    2.956794   0.000000
     8  H    3.798173   1.827847   0.000000
     9  H    4.004117   3.080742   2.446182   0.000000
    10  H    3.561471   3.821773   4.263130   2.429561   0.000000
    11  H    2.740255   3.728875   5.017519   4.263091   2.446157
    12  H    2.416579   2.105353   3.728909   3.821821   3.080767
    13  H    1.085985   3.286235   4.476534   4.903937   4.249909
    14  H    1.083829   3.816549   4.446660   4.110401   3.302737
    15  H    2.139870   2.368854   2.769957   4.249828   4.904279
    16  H    2.138858   3.061988   2.720883   3.302252   4.110526
                   11         12         13         14         15
    11  H    0.000000
    12  H    1.827826   0.000000
    13  H    2.770268   2.368663   0.000000
    14  H    2.721488   3.062154   1.834297   0.000000
    15  H    4.477070   3.286659   2.465009   3.072654   0.000000
    16  H    4.446982   3.816661   3.072724   2.465236   1.834266
                   16
    16  H    0.000000
 Stoichiometry    C6H10
 Framework group  C1[X(C6H10)]
 Deg. of freedom    42
 Full point group                 C1      NOp   1
 Largest Abelian subgroup         C1      NOp   1
 Largest concise Abelian subgroup C1      NOp   1
                         Standard orientation:                         
 ---------------------------------------------------------------------
 Center     Atomic      Atomic             Coordinates (Angstroms)
 Number     Number       Type             X           Y           Z
 ---------------------------------------------------------------------
      1          6           0        0.446416    1.429287    0.494383
      2          6           0        1.311674    0.704219   -0.292829
      3          6           0        1.312588   -0.702740   -0.292864
      4          6           0        0.448380   -1.428976    0.494342
      5          6           0       -1.567178    0.688826   -0.228826
      6          6           0       -1.566562   -0.690393   -0.228947
      7          1           0        0.123749    1.052581    1.458514
      8          1           0        0.386168    2.508888    0.385515
      9          1           0        1.847944    1.215876   -1.089319
     10          1           0        1.849573   -1.213684   -1.089333
     11          1           0        0.389373   -2.508629    0.385326
     12          1           0        0.124986   -1.052772    1.458418
     13          1           0       -2.063133   -1.233623    0.569603
     14          1           0       -1.452349   -1.233299   -1.160018
     15          1           0       -2.064702    1.231386    0.569593
     16          1           0       -1.453515    1.231937   -1.159852
 ---------------------------------------------------------------------
 Rotational constants (GHZ):           4.3642375           3.4957013           2.2823806

 **********************************************************************

            Population analysis using the SCF Density.

 **********************************************************************

 Orbital symmetries:
       Occupied  (A) (A) (A) (A) (A) (A) (A) (A) (A) (A) (A) (A)
                 (A) (A) (A) (A) (A) (A) (A) (A) (A) (A) (A)
       Virtual   (A) (A) (A) (A) (A) (A) (A) (A) (A) (A) (A) (A)
                 (A) (A) (A) (A) (A) (A) (A) (A) (A) (A) (A) (A)
                 (A) (A) (A) (A) (A) (A) (A) (A) (A) (A) (A) (A)
                 (A) (A) (A) (A) (A) (A) (A) (A) (A) (A) (A) (A)
                 (A) (A) (A) (A) (A) (A) (A) (A) (A) (A) (A) (A)
                 (A) (A) (A) (A) (A) (A) (A) (A) (A) (A) (A) (A)
                 (A) (A) (A) (A) (A) (A) (A) (A) (A) (A) (A) (A)
                 (A) (A) (A)
 The electronic state is 1-A.
 Alpha  occ. eigenvalues --  -10.29705 -10.29703 -10.29125 -10.29061 -10.28655
 Alpha  occ. eigenvalues --  -10.28603  -0.90306  -0.83890  -0.81024  -0.71155
 Alpha  occ. eigenvalues --   -0.66819  -0.60447  -0.57573  -0.54659  -0.50757
 Alpha  occ. eigenvalues --   -0.48484  -0.48343  -0.44257  -0.43132  -0.42353
 Alpha  occ. eigenvalues --   -0.41684  -0.29453  -0.29254
 Alpha virt. eigenvalues --    0.06195   0.09247   0.17764   0.19204   0.20996
 Alpha virt. eigenvalues --    0.22664   0.23255   0.23715   0.25871   0.29129
 Alpha virt. eigenvalues --    0.29447   0.32842   0.33736   0.37352   0.40619
 Alpha virt. eigenvalues --    0.44948   0.51747   0.54901   0.58942   0.60796
 Alpha virt. eigenvalues --    0.64361   0.66478   0.67076   0.70340   0.71952
 Alpha virt. eigenvalues --    0.73411   0.75063   0.76294   0.76961   0.82542
 Alpha virt. eigenvalues --    0.84101   0.91596   0.95182   0.96114   0.96400
 Alpha virt. eigenvalues --    0.96737   0.98474   0.99069   1.03687   1.05236
 Alpha virt. eigenvalues --    1.05848   1.08846   1.10277   1.15376   1.16503
 Alpha virt. eigenvalues --    1.20646   1.25511   1.32865   1.37533   1.48178
 Alpha virt. eigenvalues --    1.48257   1.57827   1.61879   1.69716   1.70035
 Alpha virt. eigenvalues --    1.82283   1.85032   1.91386   2.01431   2.02463
 Alpha virt. eigenvalues --    2.04745   2.06722   2.08034   2.12823   2.14329
 Alpha virt. eigenvalues --    2.18690   2.22173   2.29194   2.29204   2.34576
 Alpha virt. eigenvalues --    2.36903   2.36936   2.52692   2.62797   2.66696
 Alpha virt. eigenvalues --    2.69950   2.70091   2.77100   2.79846   2.96740
 Alpha virt. eigenvalues --    3.14942   4.22907   4.33920   4.38141   4.39577
 Alpha virt. eigenvalues --    4.53653   4.63849
          Condensed to atoms (all electrons):
               1          2          3          4          5          6
     1  C    5.128137   0.567531  -0.048850  -0.030257   0.082869  -0.016378
     2  C    0.567531   4.821734   0.542439  -0.048855  -0.016610  -0.023137
     3  C   -0.048850   0.542439   4.821626   0.567560  -0.023114  -0.016569
     4  C   -0.030257  -0.048855   0.567560   5.128078  -0.016354   0.082845
     5  C    0.082869  -0.016610  -0.023114  -0.016354   5.078673   0.562148
     6  C   -0.016378  -0.023137  -0.016569   0.082845   0.562148   5.078637
     7  H    0.381403  -0.032962  -0.010370   0.004623  -0.014334  -0.006261
     8  H    0.374149  -0.028732   0.004490   0.000401  -0.004457   0.000833
     9  H   -0.052191   0.381432  -0.041660   0.005374   0.000474  -0.000070
    10  H    0.005373  -0.041660   0.381431  -0.052191  -0.000069   0.000474
    11  H    0.000401   0.004489  -0.028729   0.374151   0.000832  -0.004448
    12  H    0.004622  -0.010369  -0.032961   0.381397  -0.006254  -0.014310
    13  H    0.000890   0.000408   0.000483  -0.008826  -0.038378   0.385505
    14  H    0.000620   0.000538  -0.003126  -0.007445  -0.034427   0.389743
    15  H   -0.008836   0.000484   0.000408   0.000890   0.385504  -0.038374
    16  H   -0.007466  -0.003130   0.000538   0.000620   0.389742  -0.034426
               7          8          9         10         11         12
     1  C    0.381403   0.374149  -0.052191   0.005373   0.000401   0.004622
     2  C   -0.032962  -0.028732   0.381432  -0.041660   0.004489  -0.010369
     3  C   -0.010370   0.004490  -0.041660   0.381431  -0.028729  -0.032961
     4  C    0.004623   0.000401   0.005374  -0.052191   0.374151   0.381397
     5  C   -0.014334  -0.004457   0.000474  -0.000069   0.000832  -0.006254
     6  C   -0.006261   0.000833  -0.000070   0.000474  -0.004448  -0.014310
     7  H    0.530282  -0.036266   0.004325   0.000003  -0.000059   0.004914
     8  H   -0.036266   0.528767  -0.005655  -0.000126  -0.000005  -0.000059
     9  H    0.004325  -0.005655   0.560374  -0.005991  -0.000126   0.000003
    10  H    0.000003  -0.000126  -0.005991   0.560366  -0.005656   0.004325
    11  H   -0.000059  -0.000005  -0.000126  -0.005656   0.528767  -0.036272
    12  H    0.004914  -0.000059   0.000003   0.004325  -0.036272   0.530275
    13  H    0.000393  -0.000020   0.000004  -0.000034   0.000149  -0.002801
    14  H   -0.000001  -0.000021  -0.000002   0.000342  -0.000720   0.000911
    15  H   -0.002804   0.000148  -0.000034   0.000004  -0.000020   0.000392
    16  H    0.000913  -0.000723   0.000343  -0.000002  -0.000021  -0.000001
              13         14         15         16
     1  C    0.000890   0.000620  -0.008836  -0.007466
     2  C    0.000408   0.000538   0.000484  -0.003130
     3  C    0.000483  -0.003126   0.000408   0.000538
     4  C   -0.008826  -0.007445   0.000890   0.000620
     5  C   -0.038378  -0.034427   0.385504   0.389742
     6  C    0.385505   0.389743  -0.038374  -0.034426
     7  H    0.000393  -0.000001  -0.002804   0.000913
     8  H   -0.000020  -0.000021   0.000148  -0.000723
     9  H    0.000004  -0.000002  -0.000034   0.000343
    10  H   -0.000034   0.000342   0.000004  -0.000002
    11  H    0.000149  -0.000720  -0.000020  -0.000021
    12  H   -0.002801   0.000911   0.000392  -0.000001
    13  H    0.530899  -0.035240  -0.006293   0.003836
    14  H   -0.035240   0.515269   0.003836  -0.006208
    15  H   -0.006293   0.003836   0.530892  -0.035241
    16  H    0.003836  -0.006208  -0.035241   0.515288
 Mulliken charges:
               1
     1  C   -0.382018
     2  C   -0.113600
     3  C   -0.113596
     4  C   -0.382011
     5  C   -0.346243
     6  C   -0.346214
     7  H    0.176202
     8  H    0.167275
     9  H    0.153402
    10  H    0.153411
    11  H    0.167266
    12  H    0.176187
    13  H    0.169025
    14  H    0.175931
    15  H    0.169043
    16  H    0.175939
 Sum of Mulliken charges =  -0.00000
 Mulliken charges with hydrogens summed into heavy atoms:
               1
     1  C   -0.038541
     2  C    0.039802
     3  C    0.039815
     4  C   -0.038558
     5  C   -0.001261
     6  C   -0.001257
 Electronic spatial extent (au):  <R**2>=            609.4154
 Charge=             -0.0000 electrons
 Dipole moment (field-independent basis, Debye):
    X=             -0.3995    Y=             -0.0001    Z=             -0.0113  Tot=              0.3997
 Quadrupole moment (field-independent basis, Debye-Ang):
   XX=            -40.8016   YY=            -35.1135   ZZ=            -36.3839
   XY=             -0.0038   XZ=             -2.8882   YZ=             -0.0018
 Traceless Quadrupole moment (field-independent basis, Debye-Ang):
   XX=             -3.3686   YY=              2.3195   ZZ=              1.0491
   XY=             -0.0038   XZ=             -2.8882   YZ=             -0.0018
 Octapole moment (field-independent basis, Debye-Ang**2):
  XXX=              0.8481  YYY=             -0.0021  ZZZ=              0.0331  XYY=             -1.2580
  XXY=              0.0018  XXZ=             -2.0156  XZZ=             -1.1191  YZZ=             -0.0010
  YYZ=             -1.2820  XYZ=             -0.0003
 Hexadecapole moment (field-independent basis, Debye-Ang**3):
 XXXX=           -424.3934 YYYY=           -305.4623 ZZZZ=           -101.4111 XXXY=             -0.0222
 XXXZ=            -18.5934 YYYX=             -0.0163 YYYZ=             -0.0081 ZZZX=             -3.4240
 ZZZY=             -0.0022 XXYY=           -120.1567 XXZZ=            -81.2047 YYZZ=            -70.6644
 XXYZ=             -0.0027 YYXZ=             -4.7693 ZZXY=              0.0009
 N-N= 2.248363508851D+02 E-N=-9.917800692654D+02  KE= 2.321576687093D+02
 Unable to Open any file for archive entry.
 1\1\GINC-AVRUBIO-WS\FTS\RwB97XD\6-31G(d)\C6H10\AVRUBIO\11-Sep-2026\0\\
 # opt=(noeigen,ts,calcfc) freq=(hpmodes,noraman) wb97xd/6-31G* int=ult
 rafine\\DA_ts\\0,1\C,-1.2065217723,-0.3572947122,-2.5354326095\C,-2.43
 58020888,-0.0809891075,-1.9816992938\C,-2.638001366,-0.0758794414,-0.5
 893538954\C,-1.6173700442,-0.3469927285,0.2931297254\C,0.0905745688,1.
 2488269654,-1.6060308959\C,-0.1074353065,1.2540465839,-0.2411101551\H,
 -0.5215742639,-1.0455457935,-2.0530138436\H,-1.0515255526,-0.237104114
 ,-3.6043349664\H,-3.2069993294,0.3569694941,-2.6119558277\H,-3.5561799
 868,0.3657270235,-0.2076342216\H,-1.772592012,-0.2187997714,1.36106741
 34\H,-0.8240491591,-1.0377992701,0.0304835006\H,0.6257731852,0.7952959
 307,0.4156370139\H,-0.7273926602,2.0172761264,0.2147612764\H,0.9799659
 459,0.7863909538,-2.0237768212\H,-0.3734338682,2.0080223007,-2.2249143
 194\\Version=ES64L-G16RevC.01\State=1-A\HF=-234.4568424\RMSD=7.584e-09
 \RMSF=8.891e-06\Dipole=0.1342647,0.079573,0.0191475\Quadrupole=0.10036
 92,-1.7932177,1.6928485,-2.513384,-0.2267392,-0.3520982\PG=C01 [X(C6H1
 0)]\\@
 The archive entry for this job was punched.


 A CHEMICAL PHYSICIST MAKES PRECISE MEASUREMENTS ON IMPURE COMPOUNDS.
 A THEORETICAL PHYSICAL CHEMIST MAKES IMPRECISE
     MEASUREMENTS ON PURE COMPOUNDS.
 AN EXPERIMENTAL PHYSICAL CHEMIST MAKES IMPRECISE
     MEASUREMENTS ON IMPURE COMPOUNDS.
 Job cpu time:       0 days  0 hours  8 minutes 20.7 seconds.
 Elapsed time:       0 days  0 hours  0 minutes 21.1 seconds.
 File lengths (MBytes):  RWF=     27 Int=      0 D2E=      0 Chk=      3 Scr=      1
 Normal termination of Gaussian 16 at Fri Sep 11 05:34:54 2026.
 Link1:  Proceeding to internal job step number  2.
 ---------------------------------------------------------------------
 #N Geom=AllCheck Guess=TCheck SCRF=Check GenChk RwB97XD/6-31G(d) Freq
 ---------------------------------------------------------------------
 1/5=1,10=4,11=1,29=7,30=1,38=1,40=1/1,3;
 2/12=2,40=1/2;
 3/5=1,6=6,7=1,11=2,14=-4,25=1,30=1,70=2,71=2,74=-58,75=-5,116=1,140=1/1,2,3;
 4/5=101/1;
 5/5=2,38=6,98=1/2;
 8/6=4,10=90,11=11/1;
 11/6=1,8=1,9=11,15=111,16=1/1,2,10;
 10/6=1/2;
 6/7=2,8=2,9=2,10=2,28=1/1;
 7/8=11,10=1,25=1/1,2,3,16;
 1/5=1,10=4,11=1,30=1/3;
 99//99;
 Structure from the checkpoint file:  "/home/avrubio/scratches/g16/4126/Gau-2452789.chk"
 -----
 DA_ts
 -----
 Charge =  0 Multiplicity = 1
 Redundant internal coordinates found in file.  (old form).
 C,0,-1.2065217723,-0.3572947122,-2.5354326095
 C,0,-2.4358020888,-0.0809891075,-1.9816992938
 C,0,-2.638001366,-0.0758794414,-0.5893538954
 C,0,-1.6173700442,-0.3469927285,0.2931297254
 C,0,0.0905745688,1.2488269654,-1.6060308959
 C,0,-0.1074353065,1.2540465839,-0.2411101551
 H,0,-0.5215742639,-1.0455457935,-2.0530138436
 H,0,-1.0515255526,-0.237104114,-3.6043349664
 H,0,-3.2069993294,0.3569694941,-2.6119558277
 H,0,-3.5561799868,0.3657270235,-0.2076342216
 H,0,-1.772592012,-0.2187997714,1.3610674134
 H,0,-0.8240491591,-1.0377992701,0.0304835006
 H,0,0.6257731852,0.7952959307,0.4156370139
 H,0,-0.7273926602,2.0172761264,0.2147612764
 H,0,0.9799659459,0.7863909538,-2.0237768212
 H,0,-0.3734338682,2.0080223007,-2.2249143194
 Recover connectivity data from disk.

 GradGradGradGradGradGradGradGradGradGradGradGradGradGradGradGradGradGrad
 Berny optimization.
 Initialization pass.
                           ----------------------------
                           !    Initial Parameters    !
                           ! (Angstroms and Degrees)  !
 --------------------------                            --------------------------
 ! Name  Definition              Value          Derivative Info.                !
 --------------------------------------------------------------------------------
 ! R1    R(1,2)                  1.3763         calculate D2E/DX2 analytically  !
 ! R2    R(1,5)                  2.264          calculate D2E/DX2 analytically  !
 ! R3    R(1,7)                  1.0842         calculate D2E/DX2 analytically  !
 ! R4    R(1,8)                  1.0867         calculate D2E/DX2 analytically  !
 ! R5    R(2,3)                  1.407          calculate D2E/DX2 analytically  !
 ! R6    R(2,9)                  1.088          calculate D2E/DX2 analytically  !
 ! R7    R(3,4)                  1.3762         calculate D2E/DX2 analytically  !
 ! R8    R(3,10)                 1.088          calculate D2E/DX2 analytically  !
 ! R9    R(4,6)                  2.2647         calculate D2E/DX2 analytically  !
 ! R10   R(4,11)                 1.0867         calculate D2E/DX2 analytically  !
 ! R11   R(4,12)                 1.0842         calculate D2E/DX2 analytically  !
 ! R12   R(5,6)                  1.3792         calculate D2E/DX2 analytically  !
 ! R13   R(5,15)                 1.086          calculate D2E/DX2 analytically  !
 ! R14   R(5,16)                 1.0838         calculate D2E/DX2 analytically  !
 ! R15   R(6,13)                 1.086          calculate D2E/DX2 analytically  !
 ! R16   R(6,14)                 1.0838         calculate D2E/DX2 analytically  !
 ! R17   R(7,15)                 2.3689         calculate D2E/DX2 analytically  !
 ! R18   R(12,13)                2.3687         calculate D2E/DX2 analytically  !
 ! A1    A(2,1,5)              101.779          calculate D2E/DX2 analytically  !
 ! A2    A(2,1,7)              120.843          calculate D2E/DX2 analytically  !
 ! A3    A(2,1,8)              120.0613         calculate D2E/DX2 analytically  !
 ! A4    A(5,1,7)               84.5912         calculate D2E/DX2 analytically  !
 ! A5    A(5,1,8)              104.0989         calculate D2E/DX2 analytically  !
 ! A6    A(7,1,8)              114.6917         calculate D2E/DX2 analytically  !
 ! A7    A(1,2,3)              121.8206         calculate D2E/DX2 analytically  !
 ! A8    A(1,2,9)              118.7415         calculate D2E/DX2 analytically  !
 ! A9    A(3,2,9)              118.0296         calculate D2E/DX2 analytically  !
 ! A10   A(2,3,4)              121.822          calculate D2E/DX2 analytically  !
 ! A11   A(2,3,10)             118.0311         calculate D2E/DX2 analytically  !
 ! A12   A(4,3,10)             118.7404         calculate D2E/DX2 analytically  !
 ! A13   A(3,4,6)              101.7666         calculate D2E/DX2 analytically  !
 ! A14   A(3,4,11)             120.0646         calculate D2E/DX2 analytically  !
 ! A15   A(3,4,12)             120.8518         calculate D2E/DX2 analytically  !
 ! A16   A(6,4,11)             104.1026         calculate D2E/DX2 analytically  !
 ! A17   A(6,4,12)              84.5743         calculate D2E/DX2 analytically  !
 ! A18   A(11,4,12)            114.6904         calculate D2E/DX2 analytically  !
 ! A19   A(1,5,6)              109.0676         calculate D2E/DX2 analytically  !
 ! A20   A(1,5,15)              90.5277         calculate D2E/DX2 analytically  !
 ! A21   A(1,5,16)              90.9878         calculate D2E/DX2 analytically  !
 ! A22   A(6,5,15)             119.9913         calculate D2E/DX2 analytically  !
 ! A23   A(6,5,16)             120.0648         calculate D2E/DX2 analytically  !
 ! A24   A(15,5,16)            115.4192         calculate D2E/DX2 analytically  !
 ! A25   A(4,6,5)              109.0568         calculate D2E/DX2 analytically  !
 ! A26   A(4,6,13)              90.5069         calculate D2E/DX2 analytically  !
 ! A27   A(4,6,14)              90.9879         calculate D2E/DX2 analytically  !
 ! A28   A(5,6,13)             119.9967         calculate D2E/DX2 analytically  !
 ! A29   A(5,6,14)             120.0687         calculate D2E/DX2 analytically  !
 ! A30   A(13,6,14)            115.4233         calculate D2E/DX2 analytically  !
 ! A31   A(1,7,15)              85.1254         calculate D2E/DX2 analytically  !
 ! A32   A(4,12,13)             85.1463         calculate D2E/DX2 analytically  !
 ! A33   A(6,13,12)             79.358          calculate D2E/DX2 analytically  !
 ! A34   A(5,15,7)              79.3351         calculate D2E/DX2 analytically  !
 ! D1    D(5,1,2,3)            -58.5406         calculate D2E/DX2 analytically  !
 ! D2    D(5,1,2,9)            107.644          calculate D2E/DX2 analytically  !
 ! D3    D(7,1,2,3)             32.1682         calculate D2E/DX2 analytically  !
 ! D4    D(7,1,2,9)           -161.6472         calculate D2E/DX2 analytically  !
 ! D5    D(8,1,2,3)           -172.6325         calculate D2E/DX2 analytically  !
 ! D6    D(8,1,2,9)             -6.4478         calculate D2E/DX2 analytically  !
 ! D7    D(2,1,5,6)             50.0703         calculate D2E/DX2 analytically  !
 ! D8    D(2,1,5,15)           172.2172         calculate D2E/DX2 analytically  !
 ! D9    D(2,1,5,16)           -72.3483         calculate D2E/DX2 analytically  !
 ! D10   D(7,1,5,6)            -70.3483         calculate D2E/DX2 analytically  !
 ! D11   D(7,1,5,15)            51.7986         calculate D2E/DX2 analytically  !
 ! D12   D(7,1,5,16)           167.2331         calculate D2E/DX2 analytically  !
 ! D13   D(8,1,5,6)            175.5187         calculate D2E/DX2 analytically  !
 ! D14   D(8,1,5,15)           -62.3344         calculate D2E/DX2 analytically  !
 ! D15   D(8,1,5,16)            53.1001         calculate D2E/DX2 analytically  !
 ! D16   D(2,1,7,15)          -121.699          calculate D2E/DX2 analytically  !
 ! D17   D(5,1,7,15)           -21.1959         calculate D2E/DX2 analytically  !
 ! D18   D(8,1,7,15)            81.8526         calculate D2E/DX2 analytically  !
 ! D19   D(1,2,3,4)             -0.0046         calculate D2E/DX2 analytically  !
 ! D20   D(1,2,3,10)           166.283          calculate D2E/DX2 analytically  !
 ! D21   D(9,2,3,4)           -166.2836         calculate D2E/DX2 analytically  !
 ! D22   D(9,2,3,10)             0.004          calculate D2E/DX2 analytically  !
 ! D23   D(2,3,4,6)             58.5323         calculate D2E/DX2 analytically  !
 ! D24   D(2,3,4,11)           172.6214         calculate D2E/DX2 analytically  !
 ! D25   D(2,3,4,12)           -32.1509         calculate D2E/DX2 analytically  !
 ! D26   D(10,3,4,6)          -107.6614         calculate D2E/DX2 analytically  !
 ! D27   D(10,3,4,11)            6.4277         calculate D2E/DX2 analytically  !
 ! D28   D(10,3,4,12)          161.6554         calculate D2E/DX2 analytically  !
 ! D29   D(3,4,6,5)            -50.0675         calculate D2E/DX2 analytically  !
 ! D30   D(3,4,6,13)          -172.2092         calculate D2E/DX2 analytically  !
 ! D31   D(3,4,6,14)            72.3527         calculate D2E/DX2 analytically  !
 ! D32   D(11,4,6,5)          -175.5155         calculate D2E/DX2 analytically  !
 ! D33   D(11,4,6,13)           62.3428         calculate D2E/DX2 analytically  !
 ! D34   D(11,4,6,14)          -53.0953         calculate D2E/DX2 analytically  !
 ! D35   D(12,4,6,5)            70.3567         calculate D2E/DX2 analytically  !
 ! D36   D(12,4,6,13)          -51.785          calculate D2E/DX2 analytically  !
 ! D37   D(12,4,6,14)         -167.223          calculate D2E/DX2 analytically  !
 ! D38   D(3,4,12,13)          121.6716         calculate D2E/DX2 analytically  !
 ! D39   D(6,4,12,13)           21.1928         calculate D2E/DX2 analytically  !
 ! D40   D(11,4,12,13)         -81.8521         calculate D2E/DX2 analytically  !
 ! D41   D(1,5,6,4)             -0.0009         calculate D2E/DX2 analytically  !
 ! D42   D(1,5,6,13)           102.1343         calculate D2E/DX2 analytically  !
 ! D43   D(1,5,6,14)          -102.7727         calculate D2E/DX2 analytically  !
 ! D44   D(15,5,6,4)          -102.1667         calculate D2E/DX2 analytically  !
 ! D45   D(15,5,6,13)           -0.0315         calculate D2E/DX2 analytically  !
 ! D46   D(15,5,6,14)          155.0615         calculate D2E/DX2 analytically  !
 ! D47   D(16,5,6,4)           102.7762         calculate D2E/DX2 analytically  !
 ! D48   D(16,5,6,13)         -155.0887         calculate D2E/DX2 analytically  !
 ! D49   D(16,5,6,14)            0.0044         calculate D2E/DX2 analytically  !
 ! D50   D(1,5,15,7)           -21.3692         calculate D2E/DX2 analytically  !
 ! D51   D(6,5,15,7)            91.1207         calculate D2E/DX2 analytically  !
 ! D52   D(16,5,15,7)         -112.7139         calculate D2E/DX2 analytically  !
 ! D53   D(4,6,13,12)           21.3644         calculate D2E/DX2 analytically  !
 ! D54   D(5,6,13,12)          -91.101          calculate D2E/DX2 analytically  !
 ! D55   D(14,6,13,12)         112.6993         calculate D2E/DX2 analytically  !
 ! D56   D(1,7,15,5)            49.7825         calculate D2E/DX2 analytically  !
 ! D57   D(4,12,13,6)          -49.7847         calculate D2E/DX2 analytically  !
 --------------------------------------------------------------------------------
 Trust Radius=3.00D-01 FncErr=1.00D-07 GrdErr=1.00D-07 EigMax=2.50D+02 EigMin=1.00D-04
 Number of steps in this run=      2 maximum allowed number of steps=      2.
 Search for a saddle point of order  1.
 GradGradGradGradGradGradGradGradGradGradGradGradGradGradGradGradGradGrad

                          Input orientation:                          
 ---------------------------------------------------------------------
 Center     Atomic      Atomic             Coordinates (Angstroms)
 Number     Number       Type             X           Y           Z
 ---------------------------------------------------------------------
      1          6           0       -1.206522   -0.357295   -2.535433
      2          6           0       -2.435802   -0.080989   -1.981699
      3          6           0       -2.638001   -0.075879   -0.589354
      4          6           0       -1.617370   -0.346993    0.293130
      5          6           0        0.090575    1.248827   -1.606031
      6          6           0       -0.107435    1.254047   -0.241110
      7          1           0       -0.521574   -1.045546   -2.053014
      8          1           0       -1.051526   -0.237104   -3.604335
      9          1           0       -3.206999    0.356969   -2.611956
     10          1           0       -3.556180    0.365727   -0.207634
     11          1           0       -1.772592   -0.218800    1.361067
     12          1           0       -0.824049   -1.037799    0.030484
     13          1           0        0.625773    0.795296    0.415637
     14          1           0       -0.727393    2.017276    0.214761
     15          1           0        0.979966    0.786391   -2.023777
     16          1           0       -0.373434    2.008022   -2.224914
 ---------------------------------------------------------------------
                    Distance matrix (angstroms):
                    1          2          3          4          5
     1  C    0.000000
     2  C    1.376261   0.000000
     3  C    2.432191   1.406960   0.000000
     4  C    2.858263   2.432167   1.376215   0.000000
     5  C    2.264039   2.879604   3.199001   3.011731   0.000000
     6  C    3.011366   3.198947   2.879886   2.264651   1.379219
     7  H    1.084237   2.144697   2.749876   2.682002   2.416333
     8  H    1.086748   2.138584   3.410720   3.939859   2.739636
     9  H    2.125545   1.088015   2.145236   3.385558   3.561080
    10  H    3.385602   2.145253   1.088016   2.125492   4.004272
    11  H    3.939839   3.410708   2.138575   1.086747   3.798551
    12  H    2.682032   2.749930   2.144740   1.084230   2.956920
    13  H    3.659861   3.986018   3.524369   2.520223   2.139923
    14  H    3.664931   3.485085   2.945900   2.527443   2.138894
    15  H    2.520027   3.524428   3.986322   3.660433   1.085991
    16  H    2.526892   2.945587   3.485107   3.665245   1.083835
                    6          7          8          9         10
     6  C    0.000000
     7  H    2.956794   0.000000
     8  H    3.798173   1.827847   0.000000
     9  H    4.004117   3.080742   2.446182   0.000000
    10  H    3.561471   3.821773   4.263130   2.429561   0.000000
    11  H    2.740255   3.728875   5.017519   4.263091   2.446157
    12  H    2.416579   2.105353   3.728909   3.821821   3.080767
    13  H    1.085985   3.286235   4.476534   4.903937   4.249909
    14  H    1.083829   3.816549   4.446660   4.110401   3.302737
    15  H    2.139870   2.368854   2.769957   4.249828   4.904279
    16  H    2.138858   3.061988   2.720883   3.302252   4.110526
                   11         12         13         14         15
    11  H    0.000000
    12  H    1.827826   0.000000
    13  H    2.770268   2.368663   0.000000
    14  H    2.721488   3.062154   1.834297   0.000000
    15  H    4.477070   3.286659   2.465009   3.072654   0.000000
    16  H    4.446982   3.816661   3.072724   2.465236   1.834266
                   16
    16  H    0.000000
 Stoichiometry    C6H10
 Framework group  C1[X(C6H10)]
 Deg. of freedom    42
 Full point group                 C1      NOp   1
 Largest Abelian subgroup         C1      NOp   1
 Largest concise Abelian subgroup C1      NOp   1
                         Standard orientation:                         
 ---------------------------------------------------------------------
 Center     Atomic      Atomic             Coordinates (Angstroms)
 Number     Number       Type             X           Y           Z
 ---------------------------------------------------------------------
      1          6           0        0.446416    1.429287    0.494383
      2          6           0        1.311674    0.704219   -0.292829
      3          6           0        1.312588   -0.702740   -0.292864
      4          6           0        0.448380   -1.428976    0.494342
      5          6           0       -1.567178    0.688826   -0.228826
      6          6           0       -1.566562   -0.690393   -0.228947
      7          1           0        0.123749    1.052581    1.458514
      8          1           0        0.386168    2.508888    0.385515
      9          1           0        1.847944    1.215876   -1.089319
     10          1           0        1.849573   -1.213684   -1.089333
     11          1           0        0.389373   -2.508629    0.385326
     12          1           0        0.124986   -1.052772    1.458418
     13          1           0       -2.063133   -1.233623    0.569603
     14          1           0       -1.452349   -1.233299   -1.160018
     15          1           0       -2.064702    1.231386    0.569593
     16          1           0       -1.453515    1.231937   -1.159852
 ---------------------------------------------------------------------
 Rotational constants (GHZ):           4.3642375           3.4957013           2.2823806
 Standard basis: 6-31G(d) (6D, 7F)
 There are   110 symmetry adapted cartesian basis functions of A   symmetry.
 There are   110 symmetry adapted basis functions of A   symmetry.
   110 basis functions,   208 primitive gaussians,   110 cartesian basis functions
    23 alpha electrons       23 beta electrons
       nuclear repulsion energy       224.8455156258 Hartrees.
 NAtoms=   16 NActive=   16 NUniq=   16 SFac= 1.00D+00 NAtFMM=   60 NAOKFM=F Big=F
 Integral buffers will be    131072 words long.
 Raffenetti 2 integral format.
 Two-electron integral symmetry is turned on.
 Nuclear repulsion after empirical dispersion term =      224.8363508851 Hartrees.
 One-electron integrals computed using PRISM.
 NBasis=   110 RedAO= T EigKep=  2.22D-03  NBF=   110
 NBsUse=   110 1.00D-06 EigRej= -1.00D+00 NBFU=   110
 Initial guess from the checkpoint file:  "/home/avrubio/scratches/g16/4126/Gau-2452789.chk"
 B after Tr=     0.000000    0.000000    0.000000
         Rot=    1.000000    0.000000   -0.000000   -0.000000 Ang=   0.00 deg.
 Requested convergence on RMS density matrix=1.00D-08 within 128 cycles.
 Requested convergence on MAX density matrix=1.00D-06.
 Requested convergence on             energy=1.00D-06.
 No special actions if energy rises.
 SCF Done:  E(RwB97XD) =  -234.456842445     A.U. after    1 cycles
            NFock=  1  Conv=0.27D-08     -V/T= 2.0099
 DoSCS=F DFT=T ScalE2(SS,OS)=  1.000000  1.000000
 Range of M.O.s used for correlation:     1   110
 NBasis=   110 NAE=    23 NBE=    23 NFC=     0 NFV=     0
 NROrb=    110 NOA=    23 NOB=    23 NVA=    87 NVB=    87
 Symmetrizing basis deriv contribution to polar:
 IMax=3 JMax=2 DiffMx= 0.00D+00
 G2DrvN: will do    17 centers at a time, making    1 passes.
 Calling FoFCou, ICntrl=  3107 FMM=F I1Cent=   0 AccDes= 0.00D+00.
 End of G2Drv F.D. properties file   721 does not exist.
 End of G2Drv F.D. properties file   722 does not exist.
 End of G2Drv F.D. properties file   788 does not exist.
          IDoAtm=1111111111111111
          Differentiating once with respect to electric field.
                with respect to dipole field.
          Differentiating once with respect to nuclear coordinates.
 Keep R1 ints in memory in canonical form, NReq=60336335.
          There are    51 degrees of freedom in the 1st order CPHF.  IDoFFX=6 NUNeed=     3.
     48 vectors produced by pass  0 Test12= 3.92D-15 1.96D-09 XBig12= 4.59D+01 4.22D+00.
 AX will form    48 AO Fock derivatives at one time.
     48 vectors produced by pass  1 Test12= 3.92D-15 1.96D-09 XBig12= 2.38D+00 3.38D-01.
     48 vectors produced by pass  2 Test12= 3.92D-15 1.96D-09 XBig12= 2.47D-02 3.71D-02.
     48 vectors produced by pass  3 Test12= 3.92D-15 1.96D-09 XBig12= 1.37D-04 3.50D-03.
     48 vectors produced by pass  4 Test12= 3.92D-15 1.96D-09 XBig12= 7.06D-07 1.29D-04.
     48 vectors produced by pass  5 Test12= 3.92D-15 1.96D-09 XBig12= 2.19D-09 6.57D-06.
     21 vectors produced by pass  6 Test12= 3.92D-15 1.96D-09 XBig12= 6.98D-12 4.88D-07.
      3 vectors produced by pass  7 Test12= 3.92D-15 1.96D-09 XBig12= 2.33D-14 2.79D-08.
 InvSVY:  IOpt=1 It=  1 EMax= 1.78D-15
 Solved reduced A of dimension   312 with    51 vectors.
 Isotropic polarizability for W=    0.000000       68.19 Bohr**3.
 End of Minotr F.D. properties file   721 does not exist.
 End of Minotr F.D. properties file   722 does not exist.
 End of Minotr F.D. properties file   788 does not exist.

 **********************************************************************

            Population analysis using the SCF Density.

 **********************************************************************

 Orbital symmetries:
       Occupied  (A) (A) (A) (A) (A) (A) (A) (A) (A) (A) (A) (A)
                 (A) (A) (A) (A) (A) (A) (A) (A) (A) (A) (A)
       Virtual   (A) (A) (A) (A) (A) (A) (A) (A) (A) (A) (A) (A)
                 (A) (A) (A) (A) (A) (A) (A) (A) (A) (A) (A) (A)
                 (A) (A) (A) (A) (A) (A) (A) (A) (A) (A) (A) (A)
                 (A) (A) (A) (A) (A) (A) (A) (A) (A) (A) (A) (A)
                 (A) (A) (A) (A) (A) (A) (A) (A) (A) (A) (A) (A)
                 (A) (A) (A) (A) (A) (A) (A) (A) (A) (A) (A) (A)
                 (A) (A) (A) (A) (A) (A) (A) (A) (A) (A) (A) (A)
                 (A) (A) (A)
 The electronic state is 1-A.
 Alpha  occ. eigenvalues --  -10.29705 -10.29703 -10.29125 -10.29061 -10.28655
 Alpha  occ. eigenvalues --  -10.28603  -0.90306  -0.83890  -0.81024  -0.71155
 Alpha  occ. eigenvalues --   -0.66819  -0.60447  -0.57573  -0.54659  -0.50757
 Alpha  occ. eigenvalues --   -0.48484  -0.48343  -0.44257  -0.43132  -0.42353
 Alpha  occ. eigenvalues --   -0.41684  -0.29453  -0.29254
 Alpha virt. eigenvalues --    0.06195   0.09247   0.17764   0.19204   0.20996
 Alpha virt. eigenvalues --    0.22664   0.23255   0.23715   0.25871   0.29129
 Alpha virt. eigenvalues --    0.29447   0.32842   0.33736   0.37352   0.40619
 Alpha virt. eigenvalues --    0.44948   0.51747   0.54901   0.58943   0.60796
 Alpha virt. eigenvalues --    0.64361   0.66478   0.67076   0.70340   0.71952
 Alpha virt. eigenvalues --    0.73411   0.75063   0.76294   0.76961   0.82542
 Alpha virt. eigenvalues --    0.84101   0.91596   0.95182   0.96114   0.96400
 Alpha virt. eigenvalues --    0.96737   0.98474   0.99069   1.03687   1.05236
 Alpha virt. eigenvalues --    1.05848   1.08846   1.10277   1.15376   1.16503
 Alpha virt. eigenvalues --    1.20646   1.25511   1.32865   1.37533   1.48178
 Alpha virt. eigenvalues --    1.48257   1.57827   1.61879   1.69716   1.70035
 Alpha virt. eigenvalues --    1.82283   1.85032   1.91386   2.01431   2.02463
 Alpha virt. eigenvalues --    2.04745   2.06722   2.08034   2.12823   2.14329
 Alpha virt. eigenvalues --    2.18690   2.22173   2.29194   2.29204   2.34576
 Alpha virt. eigenvalues --    2.36903   2.36936   2.52692   2.62797   2.66696
 Alpha virt. eigenvalues --    2.69950   2.70091   2.77100   2.79846   2.96740
 Alpha virt. eigenvalues --    3.14942   4.22907   4.33920   4.38141   4.39577
 Alpha virt. eigenvalues --    4.53653   4.63849
          Condensed to atoms (all electrons):
               1          2          3          4          5          6
     1  C    5.128137   0.567531  -0.048850  -0.030257   0.082869  -0.016378
     2  C    0.567531   4.821734   0.542439  -0.048855  -0.016610  -0.023137
     3  C   -0.048850   0.542439   4.821626   0.567560  -0.023114  -0.016569
     4  C   -0.030257  -0.048855   0.567560   5.128077  -0.016354   0.082845
     5  C    0.082869  -0.016610  -0.023114  -0.016354   5.078673   0.562148
     6  C   -0.016378  -0.023137  -0.016569   0.082845   0.562148   5.078637
     7  H    0.381403  -0.032962  -0.010370   0.004623  -0.014334  -0.006261
     8  H    0.374149  -0.028732   0.004490   0.000401  -0.004457   0.000833
     9  H   -0.052191   0.381432  -0.041660   0.005374   0.000474  -0.000070
    10  H    0.005373  -0.041660   0.381431  -0.052191  -0.000069   0.000474
    11  H    0.000401   0.004489  -0.028729   0.374151   0.000832  -0.004448
    12  H    0.004622  -0.010369  -0.032961   0.381397  -0.006254  -0.014310
    13  H    0.000890   0.000408   0.000483  -0.008826  -0.038378   0.385505
    14  H    0.000620   0.000538  -0.003126  -0.007445  -0.034427   0.389743
    15  H   -0.008836   0.000484   0.000408   0.000890   0.385504  -0.038374
    16  H   -0.007466  -0.003130   0.000538   0.000620   0.389742  -0.034426
               7          8          9         10         11         12
     1  C    0.381403   0.374149  -0.052191   0.005373   0.000401   0.004622
     2  C   -0.032962  -0.028732   0.381432  -0.041660   0.004489  -0.010369
     3  C   -0.010370   0.004490  -0.041660   0.381431  -0.028729  -0.032961
     4  C    0.004623   0.000401   0.005374  -0.052191   0.374151   0.381397
     5  C   -0.014334  -0.004457   0.000474  -0.000069   0.000832  -0.006254
     6  C   -0.006261   0.000833  -0.000070   0.000474  -0.004448  -0.014310
     7  H    0.530282  -0.036266   0.004325   0.000003  -0.000059   0.004914
     8  H   -0.036266   0.528767  -0.005655  -0.000126  -0.000005  -0.000059
     9  H    0.004325  -0.005655   0.560374  -0.005991  -0.000126   0.000003
    10  H    0.000003  -0.000126  -0.005991   0.560366  -0.005656   0.004325
    11  H   -0.000059  -0.000005  -0.000126  -0.005656   0.528767  -0.036272
    12  H    0.004914  -0.000059   0.000003   0.004325  -0.036272   0.530275
    13  H    0.000393  -0.000020   0.000004  -0.000034   0.000149  -0.002801
    14  H   -0.000001  -0.000021  -0.000002   0.000342  -0.000720   0.000911
    15  H   -0.002804   0.000148  -0.000034   0.000004  -0.000020   0.000392
    16  H    0.000913  -0.000723   0.000343  -0.000002  -0.000021  -0.000001
              13         14         15         16
     1  C    0.000890   0.000620  -0.008836  -0.007466
     2  C    0.000408   0.000538   0.000484  -0.003130
     3  C    0.000483  -0.003126   0.000408   0.000538
     4  C   -0.008826  -0.007445   0.000890   0.000620
     5  C   -0.038378  -0.034427   0.385504   0.389742
     6  C    0.385505   0.389743  -0.038374  -0.034426
     7  H    0.000393  -0.000001  -0.002804   0.000913
     8  H   -0.000020  -0.000021   0.000148  -0.000723
     9  H    0.000004  -0.000002  -0.000034   0.000343
    10  H   -0.000034   0.000342   0.000004  -0.000002
    11  H    0.000149  -0.000720  -0.000020  -0.000021
    12  H   -0.002801   0.000911   0.000392  -0.000001
    13  H    0.530899  -0.035240  -0.006293   0.003836
    14  H   -0.035240   0.515269   0.003836  -0.006208
    15  H   -0.006293   0.003836   0.530892  -0.035241
    16  H    0.003836  -0.006208  -0.035241   0.515288
 Mulliken charges:
               1
     1  C   -0.382018
     2  C   -0.113600
     3  C   -0.113596
     4  C   -0.382011
     5  C   -0.346243
     6  C   -0.346213
     7  H    0.176202
     8  H    0.167275
     9  H    0.153402
    10  H    0.153411
    11  H    0.167266
    12  H    0.176187
    13  H    0.169026
    14  H    0.175931
    15  H    0.169043
    16  H    0.175939
 Sum of Mulliken charges =  -0.00000
 Mulliken charges with hydrogens summed into heavy atoms:
               1
     1  C   -0.038541
     2  C    0.039802
     3  C    0.039815
     4  C   -0.038558
     5  C   -0.001261
     6  C   -0.001257
 APT charges:
               1
     1  C    0.056853
     2  C   -0.071788
     3  C   -0.071580
     4  C    0.056693
     5  C   -0.026416
     6  C   -0.026490
     7  H    0.000941
     8  H    0.010993
     9  H    0.013343
    10  H    0.013336
    11  H    0.010985
    12  H    0.001009
    13  H    0.013418
    14  H    0.002657
    15  H    0.013421
    16  H    0.002627
 Sum of APT charges =   0.00000
 APT charges with hydrogens summed into heavy atoms:
               1
     1  C    0.068787
     2  C   -0.058445
     3  C   -0.058244
     4  C    0.068686
     5  C   -0.010368
     6  C   -0.010416
 Electronic spatial extent (au):  <R**2>=            609.4154
 Charge=             -0.0000 electrons
 Dipole moment (field-independent basis, Debye):
    X=             -0.3995    Y=             -0.0001    Z=             -0.0113  Tot=              0.3997
 Quadrupole moment (field-independent basis, Debye-Ang):
   XX=            -40.8016   YY=            -35.1135   ZZ=            -36.3839
   XY=             -0.0038   XZ=             -2.8882   YZ=             -0.0018
 Traceless Quadrupole moment (field-independent basis, Debye-Ang):
   XX=             -3.3686   YY=              2.3195   ZZ=              1.0491
   XY=             -0.0038   XZ=             -2.8882   YZ=             -0.0018
 Octapole moment (field-independent basis, Debye-Ang**2):
  XXX=              0.8481  YYY=             -0.0021  ZZZ=              0.0331  XYY=             -1.2580
  XXY=              0.0018  XXZ=             -2.0156  XZZ=             -1.1191  YZZ=             -0.0010
  YYZ=             -1.2820  XYZ=             -0.0003
 Hexadecapole moment (field-independent basis, Debye-Ang**3):
 XXXX=           -424.3934 YYYY=           -305.4623 ZZZZ=           -101.4111 XXXY=             -0.0222
 XXXZ=            -18.5934 YYYX=             -0.0163 YYYZ=             -0.0081 ZZZX=             -3.4240
 ZZZY=             -0.0022 XXYY=           -120.1567 XXZZ=            -81.2047 YYZZ=            -70.6644
 XXYZ=             -0.0027 YYXZ=             -4.7693 ZZXY=              0.0009
 N-N= 2.248363508851D+02 E-N=-9.917800668417D+02  KE= 2.321576680257D+02
  Exact polarizability:      73.998      -0.005      79.962      -7.181      -0.005      50.620
 Approx polarizability:      85.239      -0.004      94.203      -9.614      -0.008      57.335
 Calling FoFJK, ICntrl=    100127 FMM=F ISym2X=0 I1Cent= 0 IOpClX= 0 NMat=1 NMatS=1 NMatT=0.
 Full mass-weighted force constant matrix:
 Low frequencies --- -592.4091    0.0006    0.0007    0.0008   10.5450   21.7866
 Low frequencies ---   29.0108  140.9037  222.0621
 ******    1 imaginary frequencies (negative Signs) ****** 
 Diagonal vibrational polarizability:
        3.4682580       2.7867104       0.9678269
 Harmonic frequencies (cm**-1), IR intensities (KM/Mole), Raman scattering
 activities (A**4/AMU), depolarization ratios for plane and unpolarized
 incident light, reduced masses (AMU), force constants (mDyne/A),
 and normal coordinates:
                           1         2         3         4         5
                           A         A         A         A         A
       Frequencies ---  -592.4091  140.8523  222.0403  292.4787  411.9505
    Reduced masses ---     8.0807    2.0909    4.1579    2.8251    2.7383
   Force constants ---     1.6709    0.0244    0.1208    0.1424    0.2738
    IR Intensities ---     7.3588    0.6684    1.1173    0.3617    2.4937
 Coord Atom Element:
   1     1     6         -0.35606   0.07396  -0.23012  -0.04826  -0.04278
   2     1     6         -0.11575   0.05426  -0.13246   0.01768  -0.03602
   3     1     6         -0.10357  -0.05641  -0.10107  -0.15786  -0.02934
   1     2     6          0.00095   0.01791  -0.10618   0.17065   0.03378
   2     2     6         -0.07784  -0.02049  -0.04970   0.00007  -0.05206
   3     2     6         -0.02681  -0.04445  -0.06044   0.08476   0.06144
   1     3     6          0.00094  -0.01787   0.10616   0.17077  -0.03472
   2     3     6          0.07785  -0.02051  -0.04956   0.00014  -0.05213
   3     3     6         -0.02679   0.04440   0.06046   0.08486  -0.06052
   1     4     6         -0.35598  -0.07407   0.23038  -0.04833   0.04281
   2     4     6          0.11531   0.05430  -0.13241  -0.01769  -0.03903
   3     4     6         -0.10352   0.05644   0.10107  -0.15789   0.02847
   1     5     6          0.37042  -0.07956   0.06375  -0.11650  -0.23297
   2     5     6          0.10969  -0.03441   0.17570   0.00197   0.09067
   3     5     6          0.12257   0.16561   0.10092   0.07190  -0.06552
   1     6     6          0.37020   0.07964  -0.06401  -0.11662   0.23383
   2     6     6         -0.10926  -0.03431   0.17564  -0.00216   0.09088
   3     6     6          0.12249  -0.16560  -0.10093   0.07187   0.06584
   1     7     1          0.19306   0.09630  -0.01553  -0.14603  -0.29504
   2     7     1          0.04165   0.12014  -0.09252   0.07894  -0.07562
   3     7     1          0.15400  -0.02375  -0.01069  -0.16724  -0.13331
   1     8     1         -0.20684   0.07922  -0.33235  -0.04191   0.12500
   2     8     1         -0.09550   0.04619  -0.14067   0.01078  -0.01754
   3     8     1         -0.04850  -0.13460  -0.13313  -0.23574   0.06239
   1     9     1          0.09610   0.01854  -0.22156   0.39668   0.18067
   2     9     1          0.00108  -0.08698  -0.03465  -0.01552  -0.01970
   3     9     1          0.08825  -0.08705  -0.12712   0.22604   0.18220
   1    10     1          0.09621  -0.01846   0.22160   0.39693  -0.18172
   2    10     1         -0.00090  -0.08706  -0.03425   0.01598  -0.01824
   3    10     1          0.08827   0.08700   0.12712   0.22631  -0.18249
   1    11     1         -0.20697  -0.07939   0.33293  -0.04184  -0.12457
   2    11     1          0.09526   0.04620  -0.14052  -0.01079  -0.02038
   3    11     1         -0.04852   0.13474   0.13311  -0.23566  -0.06719
   1    12     1          0.19300  -0.09638   0.01565  -0.14629   0.29476
   2    12     1         -0.04133   0.12025  -0.09280  -0.07903  -0.08112
   3    12     1          0.15402   0.02377   0.01064  -0.16741   0.13356
   1    13     1         -0.11478   0.05659  -0.03869  -0.00878   0.30330
   2    13     1          0.04424  -0.28685   0.06704   0.00222   0.02515
   3    13     1         -0.06983  -0.35246  -0.16330   0.14195   0.06310
   1    14     1         -0.14913   0.19995   0.05926  -0.26991   0.33743
   2    14     1          0.03355   0.21454   0.27680   0.00384   0.07783
   3    14     1         -0.03075  -0.29776  -0.14281   0.04887   0.08857
   1    15     1         -0.11461  -0.05622   0.03867  -0.00859  -0.30270
   2    15     1         -0.04435  -0.28693   0.06707  -0.00228   0.02472
   3    15     1         -0.07009   0.35249   0.16334   0.14207  -0.06294
   1    16     1         -0.14878  -0.20020  -0.05980  -0.26972  -0.33648
   2    16     1         -0.03380   0.21429   0.27672  -0.00416   0.07741
   3    16     1         -0.03080   0.29777   0.14277   0.04894  -0.08828
                           6         7         8         9        10
                           A         A         A         A         A
       Frequencies ---   419.6299  497.9167  602.9273  636.6697  704.3233
    Reduced masses ---     2.7713    2.5743    2.0591    1.0876    1.1949
   Force constants ---     0.2875    0.3760    0.4410    0.2597    0.3492
    IR Intensities ---     0.1451    0.3412    0.0006    1.5147   30.1850
 Coord Atom Element:
   1     1     6          0.00866  -0.08509  -0.03325   0.00094   0.00160
   2     1     6          0.24282   0.01531   0.07267  -0.00063   0.03856
   3     1     6         -0.05499  -0.09500   0.06076  -0.01599  -0.00686
   1     2     6         -0.08782   0.14446  -0.10352   0.01671  -0.06516
   2     2     6          0.00505   0.01204  -0.11472  -0.00003  -0.00200
   3     2     6          0.06688   0.13204   0.11760  -0.01426  -0.04492
   1     3     6         -0.08758  -0.14434   0.10359   0.01663  -0.06536
   2     3     6         -0.00441   0.01186  -0.11462   0.00009   0.00199
   3     3     6          0.06765  -0.13203  -0.11762  -0.01427  -0.04497
   1     4     6          0.00832   0.08510   0.03318   0.00098   0.00162
   2     4     6         -0.24222   0.01554   0.07253   0.00061  -0.03860
   3     4     6         -0.05529   0.09502  -0.06078  -0.01593  -0.00685
   1     5     6          0.07726   0.10904   0.00623  -0.02312   0.02177
   2     5     6         -0.00284  -0.03387   0.00012   0.00261   0.00527
   3     5     6          0.01789   0.05714   0.00311   0.04848   0.01353
   1     6     6          0.07423  -0.10915  -0.00619  -0.02320   0.02183
   2     6     6          0.00161  -0.03398   0.00012  -0.00265  -0.00525
   3     6     6          0.01696  -0.05719  -0.00307   0.04841   0.01355
   1     7     1         -0.02459  -0.29947  -0.09583   0.00864  -0.18602
   2     7     1          0.45175   0.06670   0.47019   0.02138  -0.10179
   3     7     1          0.02124  -0.15129   0.20008  -0.00498  -0.12882
   1     8     1          0.04576   0.03844   0.13539  -0.00969   0.33580
   2     8     1          0.21672   0.02700   0.04580  -0.00419   0.08865
   3     8     1         -0.35496  -0.08543  -0.33020  -0.04839   0.28466
   1     9     1         -0.10981   0.40260  -0.19495   0.04303   0.37454
   2     9     1         -0.13276   0.04694  -0.01836   0.00481   0.05423
   3     9     1         -0.04008   0.32890   0.11280   0.00562   0.29000
   1    10     1         -0.10813  -0.40249   0.19510   0.04285   0.37446
   2    10     1          0.13283   0.04635  -0.01807  -0.00474  -0.05371
   3    10     1         -0.03786  -0.32883  -0.11271   0.00557   0.29004
   1    11     1          0.04753  -0.03856  -0.13537  -0.00964   0.33641
   2    11     1         -0.21625   0.02709   0.04540   0.00418  -0.08840
   3    11     1         -0.35427   0.08556   0.33026  -0.04842   0.28490
   1    12     1         -0.02769   0.29961   0.09505   0.00861  -0.18661
   2    12     1         -0.45109   0.06725   0.47040  -0.02145   0.10159
   3    12     1          0.01981   0.15142  -0.20022  -0.00493  -0.12903
   1    13     1          0.05170  -0.10586   0.01805  -0.44508  -0.01876
   2    13     1          0.00782  -0.06221   0.00248  -0.05718   0.01194
   3    13     1          0.00610  -0.07417   0.01426  -0.24621   0.00016
   1    14     1          0.07396  -0.06346  -0.02668   0.46903  -0.00714
   2    14     1          0.00781  -0.00061  -0.00069   0.06168  -0.00175
   3    14     1          0.01399  -0.07177  -0.00507   0.07711   0.00953
   1    15     1          0.05567   0.10619  -0.01825  -0.44483  -0.01882
   2    15     1         -0.00834  -0.06209   0.00250   0.05670  -0.01199
   3    15     1          0.00710   0.07436  -0.01442  -0.24623   0.00012
   1    16     1          0.07821   0.06271   0.02704   0.46881  -0.00722
   2    16     1         -0.00875  -0.00057  -0.00072  -0.06127   0.00170
   3    16     1          0.01527   0.07162   0.00513   0.07709   0.00948
                          11        12        13        14        15
                           A         A         A         A         A
       Frequencies ---   796.8660  827.1640  864.2827  941.8319  974.4305
    Reduced masses ---     1.5022    1.1264    1.0303    1.1671    1.4056
   Force constants ---     0.5620    0.4541    0.4534    0.6100    0.7864
    IR Intensities ---     0.6813    0.4731    0.3734   12.3337   19.0556
 Coord Atom Element:
   1     1     6         -0.01079  -0.00487  -0.00186   0.03589  -0.02471
   2     1     6          0.03943  -0.01913   0.00309   0.00201   0.09220
   3     1     6         -0.01607  -0.02403   0.00425   0.01336  -0.02098
   1     2     6         -0.12062  -0.02614   0.00172  -0.02327   0.05733
   2     2     6         -0.02491   0.02845  -0.00746  -0.00437   0.06814
   3     2     6         -0.06168   0.00585   0.00163  -0.00892   0.01207
   1     3     6          0.12062  -0.02578   0.00169   0.02320   0.05737
   2     3     6         -0.02463  -0.02851   0.00746  -0.00433  -0.06803
   3     3     6          0.06154   0.00603   0.00163   0.00891   0.01208
   1     4     6          0.01080  -0.00481  -0.00188  -0.03585  -0.02445
   2     4     6          0.03933   0.01918  -0.00310   0.00208  -0.09227
   3     4     6          0.01620  -0.02393   0.00423  -0.01338  -0.02089
   1     5     6          0.03596   0.02405  -0.01572  -0.06750   0.01756
   2     5     6         -0.01331  -0.04233   0.00873  -0.01210   0.00486
   3     5     6          0.01116   0.02334   0.02466  -0.02070   0.01173
   1     6     6         -0.03605   0.02376  -0.01567   0.06760   0.01778
   2     6     6         -0.01351   0.04234  -0.00875  -0.01194  -0.00490
   3     6     6         -0.01124   0.02332   0.02465   0.02075   0.01183
   1     7     1         -0.29173  -0.31515   0.07381  -0.26999  -0.02172
   2     7     1         -0.13085  -0.14127   0.02517  -0.05766  -0.28456
   3     7     1         -0.18399  -0.18581   0.04143  -0.12224  -0.16651
   1     8     1          0.42804  -0.26913   0.07696  -0.27070  -0.18068
   2     8     1          0.09969  -0.04115   0.01063  -0.03546   0.13180
   3     8     1          0.32086  -0.05793   0.02582  -0.15222   0.44988
   1     9     1          0.12978  -0.00682  -0.00192   0.03950  -0.16861
   2     9     1          0.01830   0.03855  -0.01030   0.03146  -0.06354
   3     9     1          0.13684   0.02723  -0.00274   0.05687  -0.23344
   1    10     1         -0.12899  -0.00723  -0.00188  -0.03950  -0.16872
   2    10     1          0.01811  -0.03842   0.01027   0.03125   0.06329
   3    10     1         -0.13633   0.02676  -0.00266  -0.05668  -0.23338
   1    11     1         -0.42680  -0.27046   0.07712   0.27055  -0.18124
   2    11     1          0.09900   0.04109  -0.01056  -0.03499  -0.13198
   3    11     1         -0.32035  -0.05893   0.02592   0.15179   0.44930
   1    12     1          0.29297  -0.31465   0.07385   0.26941  -0.02250
   2    12     1         -0.13096   0.14060  -0.02509  -0.05744   0.28464
   3    12     1          0.18470  -0.18543   0.04144   0.12213  -0.16664
   1    13     1         -0.08487   0.34337   0.12318  -0.33824  -0.12858
   2    13     1         -0.01387  -0.13631  -0.43028   0.11290   0.03236
   3    13     1         -0.04044   0.09250  -0.18192  -0.14004  -0.05069
   1    14     1         -0.01004   0.33073  -0.08341  -0.35288  -0.10122
   2    14     1          0.01301   0.05377   0.42843   0.11887   0.04631
   3    14     1         -0.02618   0.06151  -0.24605  -0.11390  -0.03403
   1    15     1          0.08365   0.34342   0.12226   0.33804  -0.12749
   2    15     1         -0.01411   0.13661   0.43039   0.11328  -0.03226
   3    15     1          0.04004   0.09269  -0.18206   0.14012  -0.05029
   1    16     1          0.00884   0.33019  -0.08251   0.35292  -0.10046
   2    16     1          0.01308  -0.05346  -0.42846   0.11910  -0.04616
   3    16     1          0.02588   0.06144  -0.24600   0.11397  -0.03382
                          16        17        18        19        20
                           A         A         A         A         A
       Frequencies ---   989.3593 1004.2110 1018.0829 1028.4212 1029.3624
    Reduced masses ---     1.2391    1.3221    1.1387    1.1853    1.1158
   Force constants ---     0.7146    0.7855    0.6954    0.7386    0.6966
    IR Intensities ---     1.3589    2.0134    1.0444   40.6410    6.4642
 Coord Atom Element:
   1     1     6         -0.01572   0.05888   0.03545  -0.05932  -0.01755
   2     1     6         -0.04881   0.00408   0.01203   0.01889  -0.01745
   3     1     6         -0.05206   0.04026   0.02139  -0.03478   0.00433
   1     2     6          0.00943  -0.04287   0.00633   0.00655  -0.03815
   2     2     6         -0.03978  -0.00973  -0.00584   0.00825   0.00562
   3     2     6          0.05848  -0.05357   0.01630   0.01331  -0.03675
   1     3     6          0.00946   0.04306  -0.00621   0.00416   0.03839
   2     3     6          0.03975  -0.00993  -0.00609  -0.00841   0.00528
   3     3     6          0.05847   0.05359  -0.01633   0.01102   0.03743
   1     4     6         -0.01590  -0.05934  -0.03611  -0.05952   0.01433
   2     4     6          0.04886   0.00366   0.01161  -0.01809  -0.01841
   3     4     6         -0.05210  -0.04047  -0.02162  -0.03404  -0.00618
   1     5     6          0.00213   0.04996   0.04835  -0.04708  -0.01505
   2     5     6         -0.00283   0.01971   0.00566   0.00420  -0.00321
   3     5     6          0.00843   0.03794  -0.03671  -0.02200  -0.03577
   1     6     6          0.00195  -0.05027  -0.04886  -0.04700   0.01246
   2     6     6          0.00285   0.01963   0.00554  -0.00426  -0.00346
   3     6     6          0.00849  -0.03808   0.03644  -0.02421   0.03447
   1     7     1         -0.22515  -0.19948  -0.21703   0.43248   0.33865
   2     7     1          0.01270  -0.01479  -0.06067  -0.01707   0.09909
   3     7     1         -0.10507  -0.06021  -0.09709   0.12673   0.17713
   1     8     1          0.50407  -0.32291  -0.14176   0.11004  -0.01404
   2     8     1         -0.00689  -0.04476  -0.00628   0.05606  -0.02379
   3     8     1          0.07076  -0.19008  -0.03479   0.19638  -0.07372
   1     9     1         -0.33435   0.26039  -0.14891   0.06267   0.37561
   2     9     1         -0.08672   0.03564  -0.00614  -0.07346   0.07498
   3     9     1         -0.19988   0.18367  -0.08908  -0.00461   0.28967
   1    10     1         -0.33451  -0.26011   0.15032   0.08430  -0.37155
   2    10     1          0.08632   0.03560  -0.00550   0.06899   0.07851
   3    10     1         -0.20004  -0.18397   0.08944   0.01239  -0.28937
   1    11     1          0.50444   0.32298   0.14191   0.10583   0.01995
   2    11     1          0.00748  -0.04505  -0.00686  -0.05422  -0.02673
   3    11     1          0.07088   0.19221   0.03715   0.19052   0.08398
   1    12     1         -0.22450   0.20241   0.22238   0.44809  -0.31413
   2    12     1         -0.01320  -0.01404  -0.06023   0.01257   0.09938
   3    12     1         -0.10480   0.06094   0.09884   0.13561  -0.16976
   1    13     1          0.02942   0.38909  -0.26434   0.28059  -0.24270
   2    13     1         -0.00245  -0.06475  -0.06873  -0.08907   0.01177
   3    13     1          0.02113   0.17165  -0.14922   0.11604  -0.11217
   1    14     1          0.07757   0.06942   0.52128   0.30064   0.19128
   2    14     1         -0.02383  -0.07509   0.00431  -0.13081   0.01969
   3    14     1          0.03606   0.03517   0.11260   0.09696   0.04435
   1    15     1          0.02991  -0.38750   0.26720   0.26552   0.25773
   2    15     1          0.00227  -0.06490  -0.06735   0.08988   0.01716
   3    15     1          0.02144  -0.17107   0.15033   0.10885   0.11836
   1    16     1          0.07611  -0.06744  -0.51862   0.31763  -0.17460
   2    16     1          0.02385  -0.07425   0.00475   0.13029   0.02650
   3    16     1          0.03575  -0.03451  -0.11192   0.10098  -0.03910
                          21        22        23        24        25
                           A         A         A         A         A
       Frequencies ---  1126.5746 1130.6375 1262.3107 1280.6129 1296.4147
    Reduced masses ---     1.5080    1.5756    1.3995    1.7330    1.4256
   Force constants ---     1.1276    1.1867    1.3139    1.6745    1.4117
    IR Intensities ---     0.8131    1.2360    0.0457    0.1356    0.3764
 Coord Atom Element:
   1     1     6         -0.02965  -0.06280   0.01245   0.00473   0.06198
   2     1     6          0.11441   0.02417   0.00053  -0.02250   0.00401
   3     1     6         -0.00443   0.04674  -0.01333  -0.05855  -0.08458
   1     2     6         -0.01480   0.07385  -0.00965  -0.03812  -0.04702
   2     2     6         -0.07935   0.10062  -0.00246   0.03892  -0.02031
   3     2     6          0.04560  -0.05974   0.01354   0.04512   0.07005
   1     3     6          0.01641   0.07365   0.00963  -0.03794   0.04712
   2     3     6         -0.08131  -0.09885  -0.00248  -0.03901  -0.02020
   3     3     6         -0.04683  -0.05879  -0.01351   0.04492  -0.07013
   1     4     6          0.02822  -0.06331  -0.01244   0.00460  -0.06198
   2     4     6          0.11396  -0.02662   0.00052   0.02253   0.00389
   3     4     6          0.00540   0.04666   0.01330  -0.05834   0.08468
   1     5     6         -0.00396  -0.00809  -0.04019   0.01888   0.01077
   2     5     6         -0.00022   0.00667  -0.00093  -0.15383   0.00405
   3     5     6         -0.00015  -0.00348   0.12484   0.00507  -0.01772
   1     6     6          0.00378  -0.00810   0.04021   0.01866  -0.01080
   2     6     6         -0.00034  -0.00669  -0.00079   0.15388   0.00375
   3     6     6          0.00007  -0.00347  -0.12484   0.00521   0.01772
   1     7     1          0.22207  -0.14910   0.02246   0.27089   0.23635
   2     7     1         -0.20842   0.24724  -0.05235  -0.09348  -0.26077
   3     7     1         -0.03592   0.11098  -0.03179   0.00222  -0.13906
   1     8     1         -0.37800   0.17153  -0.00430   0.07052  -0.04820
   2     8     1          0.12893   0.04287  -0.00235  -0.01986  -0.00703
   3     8     1          0.32401  -0.02243  -0.01179  -0.01185  -0.03275
   1     9     1          0.12028  -0.17042  -0.04545  -0.08734  -0.23682
   2     9     1         -0.31125   0.55832   0.07667   0.24276   0.44545
   3     9     1         -0.01593   0.05432   0.04125   0.14772   0.24470
   1    10     1         -0.12312  -0.16723   0.04530  -0.08655   0.23642
   2    10     1         -0.32228  -0.55188   0.07658  -0.24211   0.44632
   3    10     1          0.01689   0.05386  -0.04116   0.14723  -0.24503
   1    11     1          0.38102   0.16340   0.00429   0.07059   0.04789
   2    11     1          0.12855  -0.04533  -0.00234   0.01996  -0.00703
   3    11     1         -0.32426  -0.01566   0.01185  -0.01195   0.03298
   1    12     1         -0.22477  -0.14455  -0.02224   0.27006  -0.23648
   2    12     1         -0.21367  -0.24312  -0.05234   0.09325  -0.26132
   3    12     1          0.03810   0.11005   0.03179   0.00255   0.13901
   1    13     1          0.00026   0.06947  -0.15439  -0.07919   0.07654
   2    13     1          0.00622  -0.03320   0.45649   0.36496  -0.09380
   3    13     1          0.00239   0.02576   0.07099   0.06572   0.00448
   1    14     1         -0.01305   0.04771   0.10539  -0.00134  -0.02133
   2    14     1         -0.00756  -0.03246  -0.44491   0.36965   0.06303
   3    14     1          0.00207   0.01950   0.14732  -0.10503  -0.01841
   1    15     1          0.00129   0.06958   0.15396  -0.07922  -0.07638
   2    15     1          0.00693   0.03322   0.45658  -0.36561  -0.09323
   3    15     1         -0.00181   0.02589  -0.07088   0.06563  -0.00468
   1    16     1          0.01415   0.04762  -0.10514  -0.00085   0.02124
   2    16     1         -0.00685   0.03273  -0.44528  -0.36925   0.06375
   3    16     1         -0.00163   0.01961  -0.14748  -0.10495   0.01862
                          26        27        28        29        30
                           A         A         A         A         A
       Frequencies ---  1349.0282 1465.0040 1495.2331 1529.7595 1590.5393
    Reduced masses ---     1.5057    1.2167    1.1082    1.6720    1.4355
   Force constants ---     1.6145    1.5386    1.4598    2.3053    2.1396
    IR Intensities ---     1.1599    1.3111    2.0277    8.4316    2.4753
 Coord Atom Element:
   1     1     6         -0.06039  -0.00436   0.00143  -0.02837   0.01939
   2     1     6          0.00420   0.00275   0.00072  -0.01497  -0.03942
   3     1     6          0.06737   0.01911  -0.00093   0.03199  -0.04113
   1     2     6          0.05243  -0.04920   0.00155  -0.02152  -0.01573
   2     2     6         -0.00048   0.05868  -0.00057   0.16343   0.02727
   3     2     6         -0.06326   0.05685   0.00105   0.01407   0.01085
   1     3     6          0.05241   0.04910  -0.00155  -0.02123  -0.01573
   2     3     6          0.00057   0.05876  -0.00055  -0.16338  -0.02733
   3     3     6         -0.06324  -0.05682  -0.00105   0.01397   0.01089
   1     4     6         -0.06034   0.00443  -0.00141  -0.02844   0.01937
   2     4     6         -0.00429   0.00281   0.00071   0.01490   0.03944
   3     4     6          0.06735  -0.01918   0.00092   0.03203  -0.04112
   1     5     6         -0.00940   0.00358   0.01198   0.01962   0.02154
   2     5     6         -0.08715   0.00089  -0.06640  -0.01953  -0.11918
   3     5     6         -0.00392  -0.00051   0.00216   0.00593   0.00725
   1     6     6         -0.00947  -0.00357  -0.01191   0.01959   0.02141
   2     6     6          0.08714   0.00087  -0.06643   0.01954   0.11920
   3     6     6         -0.00391   0.00052  -0.00216   0.00593   0.00727
   1     7     1         -0.18476   0.10947   0.00839   0.09002  -0.02734
   2     7     1          0.23071  -0.38102  -0.00342  -0.30121   0.31862
   3     7     1          0.12331  -0.11360   0.00021  -0.05353   0.09222
   1     8     1          0.04582   0.20176  -0.00406   0.25860  -0.09550
   2     8     1          0.01982  -0.04240   0.00089  -0.05071  -0.01141
   3     8     1          0.05119  -0.39952   0.00015  -0.38727   0.25028
   1     9     1          0.21229   0.10380  -0.00444   0.14844   0.02778
   2     9     1         -0.39608  -0.31758   0.00624  -0.21466  -0.03640
   3     9     1         -0.22332  -0.07783   0.00124  -0.12975   0.00356
   1    10     1          0.21175  -0.10343   0.00440   0.14806   0.02774
   2    10     1          0.39646  -0.31779   0.00620   0.21448   0.03656
   3    10     1         -0.22334   0.07790  -0.00121  -0.12968   0.00355
   1    11     1          0.04552  -0.20207   0.00402   0.25853  -0.09550
   2    11     1         -0.01981  -0.04268   0.00089   0.05101   0.01130
   3    11     1          0.05149   0.40000  -0.00011  -0.38717   0.25000
   1    12     1         -0.18454  -0.10911  -0.00841   0.08967  -0.02692
   2    12     1         -0.23107  -0.38146  -0.00344   0.30114  -0.31828
   3    12     1          0.12324   0.11354  -0.00023  -0.05334   0.09200
   1    13     1          0.04993   0.00897   0.01774  -0.03245  -0.01962
   2    13     1          0.21397  -0.00562   0.38348  -0.12575  -0.26210
   3    13     1          0.10206   0.00396   0.30584  -0.12075  -0.28071
   1    14     1          0.08371   0.00776   0.19141  -0.10477  -0.18433
   2    14     1          0.22136   0.00425   0.40202  -0.12725  -0.26555
   3    14     1         -0.05565   0.00078  -0.23696   0.07255   0.20875
   1    15     1          0.05016  -0.00901  -0.01817  -0.03262  -0.01993
   2    15     1         -0.21385  -0.00553   0.38342   0.12579   0.26208
   3    15     1          0.10203  -0.00404  -0.30580  -0.12085  -0.28074
   1    16     1          0.08399  -0.00783  -0.19192  -0.10499  -0.18469
   2    16     1         -0.22124   0.00434   0.40175   0.12721   0.26538
   3    16     1         -0.05564  -0.00075   0.23695   0.07259   0.20876
                          31        32        33        34        35
                           A         A         A         A         A
       Frequencies ---  1646.9428 1647.5349 3181.3345 3183.8214 3187.4110
    Reduced masses ---     2.5180    2.5475    1.0633    1.0633    1.0605
   Force constants ---     4.0240    4.0740    6.3404    6.3506    6.3479
    IR Intensities ---     0.6454    2.1857    4.5386    2.0383   17.7841
 Coord Atom Element:
   1     1     6         -0.10339  -0.05912   0.00711   0.00184   0.01380
   2     1     6          0.10393   0.08876  -0.01865  -0.00990  -0.03215
   3     1     6          0.10678   0.06809  -0.01202  -0.00207  -0.02489
   1     2     6          0.11724   0.05865   0.01694   0.01788   0.01000
   2     2     6         -0.11023  -0.16374   0.01717   0.01640   0.01289
   3     2     6         -0.11399  -0.04250  -0.02506  -0.02614  -0.01550
   1     3     6         -0.11345   0.06542  -0.01693  -0.01790   0.01014
   2     3     6         -0.10053   0.17022   0.01710   0.01638  -0.01298
   3     3     6          0.11132  -0.04934   0.02501   0.02613  -0.01566
   1     4     6          0.09958  -0.06515  -0.00704  -0.00184   0.01374
   2     4     6          0.09865  -0.09495  -0.01856  -0.00991   0.03215
   3     4     6         -0.10255   0.07441   0.01192   0.00208  -0.02482
   1     5     6         -0.00355  -0.00101  -0.01084   0.01283  -0.00202
   2     5     6         -0.00569  -0.13691   0.02554  -0.03127   0.00606
   3     5     6         -0.00117  -0.00016   0.00334  -0.00353   0.00110
   1     6     6          0.00350  -0.00136   0.01074  -0.01271  -0.00207
   2     6     6          0.00251   0.13701   0.02539  -0.03107  -0.00621
   3     6     6          0.00117  -0.00020  -0.00333   0.00352   0.00111
   1     7     1          0.05521   0.06130  -0.05942  -0.01610  -0.11992
   2     7     1         -0.39906  -0.41122  -0.07460  -0.02070  -0.14986
   3     7     1         -0.02812  -0.09086   0.17018   0.04412   0.34072
   1     8     1          0.15697   0.08077  -0.01639  -0.00679  -0.02781
   2     8     1          0.09019   0.06897   0.28927   0.14670   0.50831
   3     8     1         -0.33076  -0.23592  -0.03539  -0.01713  -0.06095
   1     9     1         -0.08566  -0.09383  -0.21044  -0.21167  -0.13514
   2     9     1          0.37011   0.13533  -0.19952  -0.19947  -0.13016
   3     9     1          0.03412   0.04570   0.30850   0.31098   0.19863
   1    10     1          0.07945  -0.09861   0.21024   0.21187  -0.13666
   2    10     1          0.36153  -0.15760  -0.19879  -0.19912   0.13123
   3    10     1         -0.03130   0.04766  -0.30781  -0.31086   0.20058
   1    11     1         -0.15193   0.09014   0.01595   0.00663  -0.02719
   2    11     1          0.08580  -0.07419   0.28750   0.14677  -0.50793
   3    11     1          0.31591  -0.25514   0.03521   0.01716  -0.06096
   1    12     1         -0.05086   0.06392   0.05908   0.01616  -0.11993
   2    12     1         -0.37352   0.43420  -0.07392  -0.02071   0.14937
   3    12     1          0.02241  -0.09212  -0.16883  -0.04420   0.33998
   1    13     1         -0.01315   0.04768  -0.15975   0.19281   0.03032
   2    13     1         -0.00403  -0.16360  -0.17472   0.21054   0.03537
   3    13     1         -0.01290  -0.18923   0.26707  -0.32316  -0.05201
   1    14     1         -0.01339  -0.08326   0.03333  -0.04202  -0.00619
   2    14     1         -0.00592  -0.16917  -0.12518   0.15568   0.02346
   3    14     1          0.00311   0.18040  -0.22566   0.27943   0.04125
   1    15     1          0.01594   0.04662   0.16094  -0.19430   0.02946
   2    15     1          0.00583   0.16359  -0.17549   0.21152  -0.03434
   3    15     1          0.00153  -0.18964  -0.26851   0.32500  -0.05048
   1    16     1          0.00833  -0.08413  -0.03339   0.04211  -0.00597
   2    16     1          0.00427   0.16913  -0.12595   0.15668  -0.02272
   3    16     1          0.00770   0.18026   0.22694  -0.28107   0.03990
                          36        37        38        39        40
                           A         A         A         A         A
       Frequencies ---  3194.0501 3197.8775 3207.2620 3266.8396 3272.0059
    Reduced masses ---     1.0708    1.0657    1.0917    1.1151    1.1146
   Force constants ---     6.4366    6.4213    6.6165    7.0118    7.0309
    IR Intensities ---    22.8014    4.8633   14.9317    1.6794    6.9525
 Coord Atom Element:
   1     1     6          0.01557  -0.00022  -0.00941  -0.00459   0.01102
   2     1     6         -0.02757  -0.00451   0.00965  -0.02246   0.05276
   3     1     6         -0.02793  -0.00163   0.01797   0.01807  -0.04314
   1     2     6         -0.01800   0.00206   0.02906  -0.00138   0.00378
   2     2     6         -0.01065   0.00106   0.02756  -0.00128   0.00351
   3     2     6          0.02425  -0.00307  -0.04124   0.00226  -0.00548
   1     3     6          0.01794   0.00201   0.02914   0.00136   0.00376
   2     3     6         -0.01053  -0.00103  -0.02754  -0.00126  -0.00349
   3     3     6         -0.02413  -0.00302  -0.04129  -0.00224  -0.00544
   1     4     6         -0.01558  -0.00018  -0.00943   0.00459   0.01100
   2     4     6         -0.02769   0.00461  -0.00972  -0.02225  -0.05234
   3     4     6          0.02797  -0.00171   0.01801  -0.01792  -0.04281
   1     5     6          0.00273   0.01727  -0.00049   0.01886  -0.00204
   2     5     6         -0.00726  -0.04770   0.00068   0.00632  -0.00190
   3     5     6          0.00036  -0.00307  -0.00057  -0.06043   0.00775
   1     6     6         -0.00265   0.01731  -0.00049  -0.01876  -0.00221
   2     6     6         -0.00705   0.04796  -0.00068   0.00626   0.00194
   3     6     6         -0.00037  -0.00310  -0.00057   0.06014   0.00828
   1     7     1         -0.12378  -0.00836   0.07280   0.06942  -0.16792
   2     7     1         -0.14977  -0.01153   0.08922   0.07806  -0.19014
   3     7     1          0.34840   0.02666  -0.20639  -0.19405   0.47440
   1     8     1         -0.02443  -0.00204   0.01130  -0.01260   0.02884
   2     8     1          0.44229   0.06707  -0.17237   0.18891  -0.44002
   3     8     1         -0.05328  -0.00705   0.01951  -0.01787   0.04253
   1     9     1          0.17534  -0.02112  -0.31585   0.01517  -0.03921
   2     9     1          0.16128  -0.02096  -0.30332   0.01419  -0.03593
   3     9     1         -0.25671   0.03270   0.46621  -0.02291   0.05721
   1    10     1         -0.17459  -0.02076  -0.31662  -0.01504  -0.03900
   2    10     1          0.16012   0.02058   0.30322   0.01403   0.03564
   3    10     1          0.25528   0.03215   0.46672   0.02268   0.05683
   1    11     1          0.02399  -0.00204   0.01115   0.01227   0.02811
   2    11     1          0.44370  -0.06858   0.17325   0.18721   0.43668
   3    11     1          0.05351  -0.00724   0.01964   0.01773   0.04228
   1    12     1          0.12428  -0.00874   0.07316  -0.06897  -0.16701
   2    12     1         -0.14985   0.01196  -0.08935   0.07728   0.18843
   3    12     1         -0.34900   0.02766  -0.20695   0.19237   0.47080
   1    13     1          0.04227  -0.24941   0.00441   0.16850   0.01826
   2    13     1          0.04456  -0.27231   0.00391   0.18936   0.02026
   3    13     1         -0.06978   0.41329  -0.00622  -0.27160  -0.02835
   1    14     1         -0.01049   0.05299  -0.00082   0.05947   0.01020
   2    14     1          0.04078  -0.20961   0.00636  -0.26243  -0.04009
   3    14     1          0.07255  -0.37273   0.01085  -0.44476  -0.06554
   1    15     1         -0.04343  -0.24834   0.00438  -0.16963   0.01676
   2    15     1          0.04570   0.27032  -0.00386   0.19006  -0.01851
   3    15     1          0.07158   0.41068  -0.00616   0.27288  -0.02585
   1    16     1          0.01068   0.05245  -0.00080  -0.05949   0.00967
   2    16     1          0.04171   0.20845  -0.00633  -0.26378   0.03784
   3    16     1         -0.07417  -0.37046   0.01079   0.44682  -0.06169
                          41        42
                           A         A
       Frequencies ---  3273.7949 3289.8636
    Reduced masses ---     1.1150    1.1169
   Force constants ---     7.0409    7.1226
    IR Intensities ---    14.7772   18.7799
 Coord Atom Element:
   1     1     6         -0.01084   0.00159
   2     1     6         -0.04707   0.00585
   3     1     6          0.04036  -0.00522
   1     2     6         -0.00265   0.00020
   2     2     6         -0.00283   0.00031
   3     2     6          0.00372  -0.00028
   1     3     6          0.00270   0.00020
   2     3     6         -0.00286  -0.00031
   3     3     6         -0.00377  -0.00028
   1     4     6          0.01101   0.00161
   2     4     6         -0.04756  -0.00589
   3     4     6         -0.04079  -0.00527
   1     5     6         -0.00920   0.02130
   2     5     6         -0.00172   0.00624
   3     5     6          0.02759  -0.06621
   1     6     6          0.00911   0.02139
   2     6     6         -0.00167  -0.00624
   3     6     6         -0.02733  -0.06652
   1     7     1          0.15573  -0.01970
   2     7     1          0.17774  -0.02385
   3     7     1         -0.44046   0.06081
   1     8     1         -0.02560   0.00282
   2     8     1          0.38738  -0.04678
   3     8     1         -0.03494   0.00409
   1     9     1          0.03035  -0.00380
   2     9     1          0.02806  -0.00307
   3     9     1         -0.04547   0.00523
   1    10     1         -0.03077  -0.00383
   2    10     1          0.02837   0.00309
   3    10     1          0.04602   0.00527
   1    11     1          0.02542   0.00278
   2    11     1          0.39159   0.04713
   3    11     1          0.03539   0.00413
   1    12     1         -0.15777  -0.01992
   2    12     1          0.17940   0.02402
   3    12     1          0.44520   0.06131
   1    13     1         -0.08213  -0.19111
   2    13     1         -0.09242  -0.21847
   3    13     1          0.13453   0.31349
   1    14     1         -0.02425  -0.06416
   2    14     1          0.11329   0.28123
   3    14     1          0.19371   0.47395
   1    15     1          0.08300  -0.19058
   2    15     1         -0.09311   0.21721
   3    15     1         -0.13564   0.31198
   1    16     1          0.02441  -0.06358
   2    16     1          0.11452  -0.28002
   3    16     1         -0.19569   0.47168
 Harmonic frequencies (cm**-1), IR intensities (KM/Mole), Raman scattering
 activities (A**4/AMU), depolarization ratios for plane and unpolarized
 incident light, reduced masses (AMU), force constants (mDyne/A),
 and normal coordinates:
                      1                      2                      3
                      A                      A                      A
 Frequencies --   -592.4091               140.8523               222.0403
 Red. masses --      8.0807                 2.0909                 4.1579
 Frc consts  --      1.6709                 0.0244                 0.1208
 IR Inten    --      7.3588                 0.6684                 1.1173
  Atom  AN      X      Y      Z        X      Y      Z        X      Y      Z
     1   6    -0.36  -0.12  -0.10     0.07   0.05  -0.06    -0.23  -0.13  -0.10
     2   6     0.00  -0.08  -0.03     0.02  -0.02  -0.04    -0.11  -0.05  -0.06
     3   6     0.00   0.08  -0.03    -0.02  -0.02   0.04     0.11  -0.05   0.06
     4   6    -0.36   0.12  -0.10    -0.07   0.05   0.06     0.23  -0.13   0.10
     5   6     0.37   0.11   0.12    -0.08  -0.03   0.17     0.06   0.18   0.10
     6   6     0.37  -0.11   0.12     0.08  -0.03  -0.17    -0.06   0.18  -0.10
     7   1     0.19   0.04   0.15     0.10   0.12  -0.02    -0.02  -0.09  -0.01
     8   1    -0.21  -0.10  -0.05     0.08   0.05  -0.13    -0.33  -0.14  -0.13
     9   1     0.10   0.00   0.09     0.02  -0.09  -0.09    -0.22  -0.03  -0.13
    10   1     0.10  -0.00   0.09    -0.02  -0.09   0.09     0.22  -0.03   0.13
    11   1    -0.21   0.10  -0.05    -0.08   0.05   0.13     0.33  -0.14   0.13
    12   1     0.19  -0.04   0.15    -0.10   0.12   0.02     0.02  -0.09   0.01
    13   1    -0.11   0.04  -0.07     0.06  -0.29  -0.35    -0.04   0.07  -0.16
    14   1    -0.15   0.03  -0.03     0.20   0.21  -0.30     0.06   0.28  -0.14
    15   1    -0.11  -0.04  -0.07    -0.06  -0.29   0.35     0.04   0.07   0.16
    16   1    -0.15  -0.03  -0.03    -0.20   0.21   0.30    -0.06   0.28   0.14
                      4                      5                      6
                      A                      A                      A
 Frequencies --    292.4787               411.9505               419.6299
 Red. masses --      2.8251                 2.7383                 2.7713
 Frc consts  --      0.1424                 0.2738                 0.2875
 IR Inten    --      0.3617                 2.4937                 0.1451
  Atom  AN      X      Y      Z        X      Y      Z        X      Y      Z
     1   6    -0.05   0.02  -0.16    -0.04  -0.04  -0.03     0.01   0.24  -0.05
     2   6     0.17   0.00   0.08     0.03  -0.05   0.06    -0.09   0.01   0.07
     3   6     0.17   0.00   0.08    -0.03  -0.05  -0.06    -0.09  -0.00   0.07
     4   6    -0.05  -0.02  -0.16     0.04  -0.04   0.03     0.01  -0.24  -0.06
     5   6    -0.12   0.00   0.07    -0.23   0.09  -0.07     0.08  -0.00   0.02
     6   6    -0.12  -0.00   0.07     0.23   0.09   0.07     0.07   0.00   0.02
     7   1    -0.15   0.08  -0.17    -0.30  -0.08  -0.13    -0.02   0.45   0.02
     8   1    -0.04   0.01  -0.24     0.12  -0.02   0.06     0.05   0.22  -0.35
     9   1     0.40  -0.02   0.23     0.18  -0.02   0.18    -0.11  -0.13  -0.04
    10   1     0.40   0.02   0.23    -0.18  -0.02  -0.18    -0.11   0.13  -0.04
    11   1    -0.04  -0.01  -0.24    -0.12  -0.02  -0.07     0.05  -0.22  -0.35
    12   1    -0.15  -0.08  -0.17     0.29  -0.08   0.13    -0.03  -0.45   0.02
    13   1    -0.01   0.00   0.14     0.30   0.03   0.06     0.05   0.01   0.01
    14   1    -0.27   0.00   0.05     0.34   0.08   0.09     0.07   0.01   0.01
    15   1    -0.01  -0.00   0.14    -0.30   0.02  -0.06     0.06  -0.01   0.01
    16   1    -0.27  -0.00   0.05    -0.34   0.08  -0.09     0.08  -0.01   0.02
                      7                      8                      9
                      A                      A                      A
 Frequencies --    497.9167               602.9273               636.6697
 Red. masses --      2.5743                 2.0591                 1.0876
 Frc consts  --      0.3760                 0.4410                 0.2597
 IR Inten    --      0.3412                 0.0006                 1.5147
  Atom  AN      X      Y      Z        X      Y      Z        X      Y      Z
     1   6    -0.09   0.02  -0.10    -0.03   0.07   0.06     0.00  -0.00  -0.02
     2   6     0.14   0.01   0.13    -0.10  -0.11   0.12     0.02  -0.00  -0.01
     3   6    -0.14   0.01  -0.13     0.10  -0.11  -0.12     0.02   0.00  -0.01
     4   6     0.09   0.02   0.10     0.03   0.07  -0.06     0.00   0.00  -0.02
     5   6     0.11  -0.03   0.06     0.01   0.00   0.00    -0.02   0.00   0.05
     6   6    -0.11  -0.03  -0.06    -0.01   0.00  -0.00    -0.02  -0.00   0.05
     7   1    -0.30   0.07  -0.15    -0.10   0.47   0.20     0.01   0.02  -0.00
     8   1     0.04   0.03  -0.09     0.14   0.05  -0.33    -0.01  -0.00  -0.05
     9   1     0.40   0.05   0.33    -0.19  -0.02   0.11     0.04   0.00   0.01
    10   1    -0.40   0.05  -0.33     0.20  -0.02  -0.11     0.04  -0.00   0.01
    11   1    -0.04   0.03   0.09    -0.14   0.05   0.33    -0.01   0.00  -0.05
    12   1     0.30   0.07   0.15     0.10   0.47  -0.20     0.01  -0.02  -0.00
    13   1    -0.11  -0.06  -0.07     0.02   0.00   0.01    -0.45  -0.06  -0.25
    14   1    -0.06  -0.00  -0.07    -0.03  -0.00  -0.01     0.47   0.06   0.08
    15   1     0.11  -0.06   0.07    -0.02   0.00  -0.01    -0.44   0.06  -0.25
    16   1     0.06  -0.00   0.07     0.03  -0.00   0.01     0.47  -0.06   0.08
                     10                     11                     12
                      A                      A                      A
 Frequencies --    704.3233               796.8660               827.1640
 Red. masses --      1.1949                 1.5022                 1.1264
 Frc consts  --      0.3492                 0.5620                 0.4541
 IR Inten    --     30.1850                 0.6813                 0.4731
  Atom  AN      X      Y      Z        X      Y      Z        X      Y      Z
     1   6     0.00   0.04  -0.01    -0.01   0.04  -0.02    -0.00  -0.02  -0.02
     2   6    -0.07  -0.00  -0.04    -0.12  -0.02  -0.06    -0.03   0.03   0.01
     3   6    -0.07   0.00  -0.04     0.12  -0.02   0.06    -0.03  -0.03   0.01
     4   6     0.00  -0.04  -0.01     0.01   0.04   0.02    -0.00   0.02  -0.02
     5   6     0.02   0.01   0.01     0.04  -0.01   0.01     0.02  -0.04   0.02
     6   6     0.02  -0.01   0.01    -0.04  -0.01  -0.01     0.02   0.04   0.02
     7   1    -0.19  -0.10  -0.13    -0.29  -0.13  -0.18    -0.32  -0.14  -0.19
     8   1     0.34   0.09   0.28     0.43   0.10   0.32    -0.27  -0.04  -0.06
     9   1     0.37   0.05   0.29     0.13   0.02   0.14    -0.01   0.04   0.03
    10   1     0.37  -0.05   0.29    -0.13   0.02  -0.14    -0.01  -0.04   0.03
    11   1     0.34  -0.09   0.28    -0.43   0.10  -0.32    -0.27   0.04  -0.06
    12   1    -0.19   0.10  -0.13     0.29  -0.13   0.18    -0.31   0.14  -0.19
    13   1    -0.02   0.01   0.00    -0.08  -0.01  -0.04     0.34  -0.14   0.09
    14   1    -0.01  -0.00   0.01    -0.01   0.01  -0.03     0.33   0.05   0.06
    15   1    -0.02  -0.01   0.00     0.08  -0.01   0.04     0.34   0.14   0.09
    16   1    -0.01   0.00   0.01     0.01   0.01   0.03     0.33  -0.05   0.06
                     13                     14                     15
                      A                      A                      A
 Frequencies --    864.2827               941.8319               974.4305
 Red. masses --      1.0303                 1.1671                 1.4056
 Frc consts  --      0.4534                 0.6100                 0.7864
 IR Inten    --      0.3734                12.3337                19.0556
  Atom  AN      X      Y      Z        X      Y      Z        X      Y      Z
     1   6    -0.00   0.00   0.00     0.04   0.00   0.01    -0.02   0.09  -0.02
     2   6     0.00  -0.01   0.00    -0.02  -0.00  -0.01     0.06   0.07   0.01
     3   6     0.00   0.01   0.00     0.02  -0.00   0.01     0.06  -0.07   0.01
     4   6    -0.00  -0.00   0.00    -0.04   0.00  -0.01    -0.02  -0.09  -0.02
     5   6    -0.02   0.01   0.02    -0.07  -0.01  -0.02     0.02   0.00   0.01
     6   6    -0.02  -0.01   0.02     0.07  -0.01   0.02     0.02  -0.00   0.01
     7   1     0.07   0.03   0.04    -0.27  -0.06  -0.12    -0.02  -0.28  -0.17
     8   1     0.08   0.01   0.03    -0.27  -0.04  -0.15    -0.18   0.13   0.45
     9   1    -0.00  -0.01  -0.00     0.04   0.03   0.06    -0.17  -0.06  -0.23
    10   1    -0.00   0.01  -0.00    -0.04   0.03  -0.06    -0.17   0.06  -0.23
    11   1     0.08  -0.01   0.03     0.27  -0.03   0.15    -0.18  -0.13   0.45
    12   1     0.07  -0.03   0.04     0.27  -0.06   0.12    -0.02   0.28  -0.17
    13   1     0.12  -0.43  -0.18    -0.34   0.11  -0.14    -0.13   0.03  -0.05
    14   1    -0.08   0.43  -0.25    -0.35   0.12  -0.11    -0.10   0.05  -0.03
    15   1     0.12   0.43  -0.18     0.34   0.11   0.14    -0.13  -0.03  -0.05
    16   1    -0.08  -0.43  -0.25     0.35   0.12   0.11    -0.10  -0.05  -0.03
                     16                     17                     18
                      A                      A                      A
 Frequencies --    989.3593              1004.2110              1018.0829
 Red. masses --      1.2391                 1.3221                 1.1387
 Frc consts  --      0.7146                 0.7855                 0.6954
 IR Inten    --      1.3589                 2.0134                 1.0444
  Atom  AN      X      Y      Z        X      Y      Z        X      Y      Z
     1   6    -0.02  -0.05  -0.05     0.06   0.00   0.04     0.04   0.01   0.02
     2   6     0.01  -0.04   0.06    -0.04  -0.01  -0.05     0.01  -0.01   0.02
     3   6     0.01   0.04   0.06     0.04  -0.01   0.05    -0.01  -0.01  -0.02
     4   6    -0.02   0.05  -0.05    -0.06   0.00  -0.04    -0.04   0.01  -0.02
     5   6     0.00  -0.00   0.01     0.05   0.02   0.04     0.05   0.01  -0.04
     6   6     0.00   0.00   0.01    -0.05   0.02  -0.04    -0.05   0.01   0.04
     7   1    -0.23   0.01  -0.11    -0.20  -0.01  -0.06    -0.22  -0.06  -0.10
     8   1     0.50  -0.01   0.07    -0.32  -0.04  -0.19    -0.14  -0.01  -0.03
     9   1    -0.33  -0.09  -0.20     0.26   0.04   0.18    -0.15  -0.01  -0.09
    10   1    -0.33   0.09  -0.20    -0.26   0.04  -0.18     0.15  -0.01   0.09
    11   1     0.50   0.01   0.07     0.32  -0.05   0.19     0.14  -0.01   0.04
    12   1    -0.22  -0.01  -0.10     0.20  -0.01   0.06     0.22  -0.06   0.10
    13   1     0.03  -0.00   0.02     0.39  -0.06   0.17    -0.26  -0.07  -0.15
    14   1     0.08  -0.02   0.04     0.07  -0.08   0.04     0.52   0.00   0.11
    15   1     0.03   0.00   0.02    -0.39  -0.06  -0.17     0.27  -0.07   0.15
    16   1     0.08   0.02   0.04    -0.07  -0.07  -0.03    -0.52   0.00  -0.11
                     19                     20                     21
                      A                      A                      A
 Frequencies --   1028.4212              1029.3624              1126.5746
 Red. masses --      1.1853                 1.1158                 1.5080
 Frc consts  --      0.7386                 0.6966                 1.1276
 IR Inten    --     40.6410                 6.4642                 0.8131
  Atom  AN      X      Y      Z        X      Y      Z        X      Y      Z
     1   6    -0.06   0.02  -0.03    -0.02  -0.02   0.00    -0.03   0.11  -0.00
     2   6     0.01   0.01   0.01    -0.04   0.01  -0.04    -0.01  -0.08   0.05
     3   6     0.00  -0.01   0.01     0.04   0.01   0.04     0.02  -0.08  -0.05
     4   6    -0.06  -0.02  -0.03     0.01  -0.02  -0.01     0.03   0.11   0.01
     5   6    -0.05   0.00  -0.02    -0.02  -0.00  -0.04    -0.00  -0.00  -0.00
     6   6    -0.05  -0.00  -0.02     0.01  -0.00   0.03     0.00  -0.00   0.00
     7   1     0.43  -0.02   0.13     0.34   0.10   0.18     0.22  -0.21  -0.04
     8   1     0.11   0.06   0.20    -0.01  -0.02  -0.07    -0.38   0.13   0.32
     9   1     0.06  -0.07  -0.00     0.38   0.07   0.29     0.12  -0.31  -0.02
    10   1     0.08   0.07   0.01    -0.37   0.08  -0.29    -0.12  -0.32   0.02
    11   1     0.11  -0.05   0.19     0.02  -0.03   0.08     0.38   0.13  -0.32
    12   1     0.45   0.01   0.14    -0.31   0.10  -0.17    -0.22  -0.21   0.04
    13   1     0.28  -0.09   0.12    -0.24   0.01  -0.11     0.00   0.01   0.00
    14   1     0.30  -0.13   0.10     0.19   0.02   0.04    -0.01  -0.01   0.00
    15   1     0.27   0.09   0.11     0.26   0.02   0.12     0.00   0.01  -0.00
    16   1     0.32   0.13   0.10    -0.17   0.03  -0.04     0.01  -0.01  -0.00
                     22                     23                     24
                      A                      A                      A
 Frequencies --   1130.6375              1262.3107              1280.6129
 Red. masses --      1.5756                 1.3995                 1.7330
 Frc consts  --      1.1867                 1.3139                 1.6745
 IR Inten    --      1.2360                 0.0457                 0.1356
  Atom  AN      X      Y      Z        X      Y      Z        X      Y      Z
     1   6    -0.06   0.02   0.05     0.01   0.00  -0.01     0.00  -0.02  -0.06
     2   6     0.07   0.10  -0.06    -0.01  -0.00   0.01    -0.04   0.04   0.05
     3   6     0.07  -0.10  -0.06     0.01  -0.00  -0.01    -0.04  -0.04   0.04
     4   6    -0.06  -0.03   0.05    -0.01   0.00   0.01     0.00   0.02  -0.06
     5   6    -0.01   0.01  -0.00    -0.04  -0.00   0.12     0.02  -0.15   0.01
     6   6    -0.01  -0.01  -0.00     0.04  -0.00  -0.12     0.02   0.15   0.01
     7   1    -0.15   0.25   0.11     0.02  -0.05  -0.03     0.27  -0.09   0.00
     8   1     0.17   0.04  -0.02    -0.00  -0.00  -0.01     0.07  -0.02  -0.01
     9   1    -0.17   0.56   0.05    -0.05   0.08   0.04    -0.09   0.24   0.15
    10   1    -0.17  -0.55   0.05     0.05   0.08  -0.04    -0.09  -0.24   0.15
    11   1     0.16  -0.05  -0.02     0.00  -0.00   0.01     0.07   0.02  -0.01
    12   1    -0.14  -0.24   0.11    -0.02  -0.05   0.03     0.27   0.09   0.00
    13   1     0.07  -0.03   0.03    -0.15   0.46   0.07    -0.08   0.36   0.07
    14   1     0.05  -0.03   0.02     0.11  -0.44   0.15    -0.00   0.37  -0.11
    15   1     0.07   0.03   0.03     0.15   0.46  -0.07    -0.08  -0.37   0.07
    16   1     0.05   0.03   0.02    -0.11  -0.45  -0.15    -0.00  -0.37  -0.10
                     25                     26                     27
                      A                      A                      A
 Frequencies --   1296.4147              1349.0282              1465.0040
 Red. masses --      1.4256                 1.5057                 1.2167
 Frc consts  --      1.4117                 1.6145                 1.5386
 IR Inten    --      0.3764                 1.1599                 1.3111
  Atom  AN      X      Y      Z        X      Y      Z        X      Y      Z
     1   6     0.06   0.00  -0.08    -0.06   0.00   0.07    -0.00   0.00   0.02
     2   6    -0.05  -0.02   0.07     0.05  -0.00  -0.06    -0.05   0.06   0.06
     3   6     0.05  -0.02  -0.07     0.05   0.00  -0.06     0.05   0.06  -0.06
     4   6    -0.06   0.00   0.08    -0.06  -0.00   0.07     0.00   0.00  -0.02
     5   6     0.01   0.00  -0.02    -0.01  -0.09  -0.00     0.00   0.00  -0.00
     6   6    -0.01   0.00   0.02    -0.01   0.09  -0.00    -0.00   0.00   0.00
     7   1     0.24  -0.26  -0.14    -0.18   0.23   0.12     0.11  -0.38  -0.11
     8   1    -0.05  -0.01  -0.03     0.05   0.02   0.05     0.20  -0.04  -0.40
     9   1    -0.24   0.45   0.24     0.21  -0.40  -0.22     0.10  -0.32  -0.08
    10   1     0.24   0.45  -0.25     0.21   0.40  -0.22    -0.10  -0.32   0.08
    11   1     0.05  -0.01   0.03     0.05  -0.02   0.05    -0.20  -0.04   0.40
    12   1    -0.24  -0.26   0.14    -0.18  -0.23   0.12    -0.11  -0.38   0.11
    13   1     0.08  -0.09   0.00     0.05   0.21   0.10     0.01  -0.01   0.00
    14   1    -0.02   0.06  -0.02     0.08   0.22  -0.06     0.01   0.00   0.00
    15   1    -0.08  -0.09  -0.00     0.05  -0.21   0.10    -0.01  -0.01  -0.00
    16   1     0.02   0.06   0.02     0.08  -0.22  -0.06    -0.01   0.00  -0.00
                     28                     29                     30
                      A                      A                      A
 Frequencies --   1495.2331              1529.7595              1590.5393
 Red. masses --      1.1082                 1.6720                 1.4355
 Frc consts  --      1.4598                 2.3053                 2.1396
 IR Inten    --      2.0277                 8.4316                 2.4753
  Atom  AN      X      Y      Z        X      Y      Z        X      Y      Z
     1   6     0.00   0.00  -0.00    -0.03  -0.01   0.03     0.02  -0.04  -0.04
     2   6     0.00  -0.00   0.00    -0.02   0.16   0.01    -0.02   0.03   0.01
     3   6    -0.00  -0.00  -0.00    -0.02  -0.16   0.01    -0.02  -0.03   0.01
     4   6    -0.00   0.00   0.00    -0.03   0.01   0.03     0.02   0.04  -0.04
     5   6     0.01  -0.07   0.00     0.02  -0.02   0.01     0.02  -0.12   0.01
     6   6    -0.01  -0.07  -0.00     0.02   0.02   0.01     0.02   0.12   0.01
     7   1     0.01  -0.00   0.00     0.09  -0.30  -0.05    -0.03   0.32   0.09
     8   1    -0.00   0.00   0.00     0.26  -0.05  -0.39    -0.10  -0.01   0.25
     9   1    -0.00   0.01   0.00     0.15  -0.21  -0.13     0.03  -0.04   0.00
    10   1     0.00   0.01  -0.00     0.15   0.21  -0.13     0.03   0.04   0.00
    11   1     0.00   0.00  -0.00     0.26   0.05  -0.39    -0.10   0.01   0.25
    12   1    -0.01  -0.00  -0.00     0.09   0.30  -0.05    -0.03  -0.32   0.09
    13   1     0.02   0.38   0.31    -0.03  -0.13  -0.12    -0.02  -0.26  -0.28
    14   1     0.19   0.40  -0.24    -0.10  -0.13   0.07    -0.18  -0.27   0.21
    15   1    -0.02   0.38  -0.31    -0.03   0.13  -0.12    -0.02   0.26  -0.28
    16   1    -0.19   0.40   0.24    -0.10   0.13   0.07    -0.18   0.27   0.21
                     31                     32                     33
                      A                      A                      A
 Frequencies --   1646.9428              1647.5349              3181.3345
 Red. masses --      2.5180                 2.5475                 1.0633
 Frc consts  --      4.0240                 4.0740                 6.3404
 IR Inten    --      0.6454                 2.1857                 4.5386
  Atom  AN      X      Y      Z        X      Y      Z        X      Y      Z
     1   6    -0.10   0.10   0.11    -0.06   0.09   0.07     0.01  -0.02  -0.01
     2   6     0.12  -0.11  -0.11     0.06  -0.16  -0.04     0.02   0.02  -0.03
     3   6    -0.11  -0.10   0.11     0.07   0.17  -0.05    -0.02   0.02   0.03
     4   6     0.10   0.10  -0.10    -0.07  -0.09   0.07    -0.01  -0.02   0.01
     5   6    -0.00  -0.01  -0.00    -0.00  -0.14  -0.00    -0.01   0.03   0.00
     6   6     0.00   0.00   0.00    -0.00   0.14  -0.00     0.01   0.03  -0.00
     7   1     0.06  -0.40  -0.03     0.06  -0.41  -0.09    -0.06  -0.07   0.17
     8   1     0.16   0.09  -0.33     0.08   0.07  -0.24    -0.02   0.29  -0.04
     9   1    -0.09   0.37   0.03    -0.09   0.14   0.05    -0.21  -0.20   0.31
    10   1     0.08   0.36  -0.03    -0.10  -0.16   0.05     0.21  -0.20  -0.31
    11   1    -0.15   0.09   0.32     0.09  -0.07  -0.26     0.02   0.29   0.04
    12   1    -0.05  -0.37   0.02     0.06   0.43  -0.09     0.06  -0.07  -0.17
    13   1    -0.01  -0.00  -0.01     0.05  -0.16  -0.19    -0.16  -0.17   0.27
    14   1    -0.01  -0.01   0.00    -0.08  -0.17   0.18     0.03  -0.13  -0.23
    15   1     0.02   0.01   0.00     0.05   0.16  -0.19     0.16  -0.18  -0.27
    16   1     0.01   0.00   0.01    -0.08   0.17   0.18    -0.03  -0.13   0.23
                     34                     35                     36
                      A                      A                      A
 Frequencies --   3183.8214              3187.4110              3194.0501
 Red. masses --      1.0633                 1.0605                 1.0708
 Frc consts  --      6.3506                 6.3479                 6.4366
 IR Inten    --      2.0383                17.7841                22.8014
  Atom  AN      X      Y      Z        X      Y      Z        X      Y      Z
     1   6     0.00  -0.01  -0.00     0.01  -0.03  -0.02     0.02  -0.03  -0.03
     2   6     0.02   0.02  -0.03     0.01   0.01  -0.02    -0.02  -0.01   0.02
     3   6    -0.02   0.02   0.03     0.01  -0.01  -0.02     0.02  -0.01  -0.02
     4   6    -0.00  -0.01   0.00     0.01   0.03  -0.02    -0.02  -0.03   0.03
     5   6     0.01  -0.03  -0.00    -0.00   0.01   0.00     0.00  -0.01   0.00
     6   6    -0.01  -0.03   0.00    -0.00  -0.01   0.00    -0.00  -0.01  -0.00
     7   1    -0.02  -0.02   0.04    -0.12  -0.15   0.34    -0.12  -0.15   0.35
     8   1    -0.01   0.15  -0.02    -0.03   0.51  -0.06    -0.02   0.44  -0.05
     9   1    -0.21  -0.20   0.31    -0.14  -0.13   0.20     0.18   0.16  -0.26
    10   1     0.21  -0.20  -0.31    -0.14   0.13   0.20    -0.17   0.16   0.26
    11   1     0.01   0.15   0.02    -0.03  -0.51  -0.06     0.02   0.44   0.05
    12   1     0.02  -0.02  -0.04    -0.12   0.15   0.34     0.12  -0.15  -0.35
    13   1     0.19   0.21  -0.32     0.03   0.04  -0.05     0.04   0.04  -0.07
    14   1    -0.04   0.16   0.28    -0.01   0.02   0.04    -0.01   0.04   0.07
    15   1    -0.19   0.21   0.32     0.03  -0.03  -0.05    -0.04   0.05   0.07
    16   1     0.04   0.16  -0.28    -0.01  -0.02   0.04     0.01   0.04  -0.07
                     37                     38                     39
                      A                      A                      A
 Frequencies --   3197.8775              3207.2620              3266.8396
 Red. masses --      1.0657                 1.0917                 1.1151
 Frc consts  --      6.4213                 6.6165                 7.0118
 IR Inten    --      4.8633                14.9317                 1.6794
  Atom  AN      X      Y      Z        X      Y      Z        X      Y      Z
     1   6    -0.00  -0.00  -0.00    -0.01   0.01   0.02    -0.00  -0.02   0.02
     2   6     0.00   0.00  -0.00     0.03   0.03  -0.04    -0.00  -0.00   0.00
     3   6     0.00  -0.00  -0.00     0.03  -0.03  -0.04     0.00  -0.00  -0.00
     4   6    -0.00   0.00  -0.00    -0.01  -0.01   0.02     0.00  -0.02  -0.02
     5   6     0.02  -0.05  -0.00    -0.00   0.00  -0.00     0.02   0.01  -0.06
     6   6     0.02   0.05  -0.00    -0.00  -0.00  -0.00    -0.02   0.01   0.06
     7   1    -0.01  -0.01   0.03     0.07   0.09  -0.21     0.07   0.08  -0.19
     8   1    -0.00   0.07  -0.01     0.01  -0.17   0.02    -0.01   0.19  -0.02
     9   1    -0.02  -0.02   0.03    -0.32  -0.30   0.47     0.02   0.01  -0.02
    10   1    -0.02   0.02   0.03    -0.32   0.30   0.47    -0.02   0.01   0.02
    11   1    -0.00  -0.07  -0.01     0.01   0.17   0.02     0.01   0.19   0.02
    12   1    -0.01   0.01   0.03     0.07  -0.09  -0.21    -0.07   0.08   0.19
    13   1    -0.25  -0.27   0.41     0.00   0.00  -0.01     0.17   0.19  -0.27
    14   1     0.05  -0.21  -0.37    -0.00   0.01   0.01     0.06  -0.26  -0.44
    15   1    -0.25   0.27   0.41     0.00  -0.00  -0.01    -0.17   0.19   0.27
    16   1     0.05   0.21  -0.37    -0.00  -0.01   0.01    -0.06  -0.26   0.45
                     40                     41                     42
                      A                      A                      A
 Frequencies --   3272.0059              3273.7949              3289.8636
 Red. masses --      1.1146                 1.1150                 1.1169
 Frc consts  --      7.0309                 7.0409                 7.1226
 IR Inten    --      6.9525                14.7772                18.7799
  Atom  AN      X      Y      Z        X      Y      Z        X      Y      Z
     1   6     0.01   0.05  -0.04    -0.01  -0.05   0.04     0.00   0.01  -0.01
     2   6     0.00   0.00  -0.01    -0.00  -0.00   0.00     0.00   0.00  -0.00
     3   6     0.00  -0.00  -0.01     0.00  -0.00  -0.00     0.00  -0.00  -0.00
     4   6     0.01  -0.05  -0.04     0.01  -0.05  -0.04     0.00  -0.01  -0.01
     5   6    -0.00  -0.00   0.01    -0.01  -0.00   0.03     0.02   0.01  -0.07
     6   6    -0.00   0.00   0.01     0.01  -0.00  -0.03     0.02  -0.01  -0.07
     7   1    -0.17  -0.19   0.47     0.16   0.18  -0.44    -0.02  -0.02   0.06
     8   1     0.03  -0.44   0.04    -0.03   0.39  -0.03     0.00  -0.05   0.00
     9   1    -0.04  -0.04   0.06     0.03   0.03  -0.05    -0.00  -0.00   0.01
    10   1    -0.04   0.04   0.06    -0.03   0.03   0.05    -0.00   0.00   0.01
    11   1     0.03   0.44   0.04     0.03   0.39   0.04     0.00   0.05   0.00
    12   1    -0.17   0.19   0.47    -0.16   0.18   0.45    -0.02   0.02   0.06
    13   1     0.02   0.02  -0.03    -0.08  -0.09   0.13    -0.19  -0.22   0.31
    14   1     0.01  -0.04  -0.07    -0.02   0.11   0.19    -0.06   0.28   0.47
    15   1     0.02  -0.02  -0.03     0.08  -0.09  -0.14    -0.19   0.22   0.31
    16   1     0.01   0.04  -0.06     0.02   0.11  -0.20    -0.06  -0.28   0.47

 -------------------
 - Thermochemistry -
 -------------------
 Temperature   298.150 Kelvin.  Pressure   1.00000 Atm.
 Atom     1 has atomic number  6 and mass  12.00000
 Atom     2 has atomic number  6 and mass  12.00000
 Atom     3 has atomic number  6 and mass  12.00000
 Atom     4 has atomic number  6 and mass  12.00000
 Atom     5 has atomic number  6 and mass  12.00000
 Atom     6 has atomic number  6 and mass  12.00000
 Atom     7 has atomic number  1 and mass   1.00783
 Atom     8 has atomic number  1 and mass   1.00783
 Atom     9 has atomic number  1 and mass   1.00783
 Atom    10 has atomic number  1 and mass   1.00783
 Atom    11 has atomic number  1 and mass   1.00783
 Atom    12 has atomic number  1 and mass   1.00783
 Atom    13 has atomic number  1 and mass   1.00783
 Atom    14 has atomic number  1 and mass   1.00783
 Atom    15 has atomic number  1 and mass   1.00783
 Atom    16 has atomic number  1 and mass   1.00783
 Molecular mass:    82.07825 amu.
 Principal axes and moments of inertia in atomic units:
                           1         2         3
     Eigenvalues --   413.52956 516.27444 790.72753
           X            0.99975  -0.00014  -0.02213
           Y            0.00014   1.00000  -0.00002
           Z            0.02213   0.00001   0.99975
 This molecule is an asymmetric top.
 Rotational symmetry number  1.
 Rotational temperatures (Kelvin)      0.20945     0.16777     0.10954
 Rotational constants (GHZ):           4.36424     3.49570     2.28238
    1 imaginary frequencies ignored.
 Zero-point vibrational energy     373699.4 (Joules/Mol)
                                   89.31629 (Kcal/Mol)
 Warning -- explicit consideration of   7 degrees of freedom as
           vibrations may cause significant error
 Vibrational temperatures:    202.66   319.47   420.81   592.70   603.75
          (Kelvin)            716.39   867.48   916.03  1013.36  1146.51
                             1190.10  1243.51  1355.09  1401.99  1423.47
                             1444.84  1464.79  1479.67  1481.02  1620.89
                             1626.74  1816.18  1842.52  1865.25  1940.95
                             2107.81  2151.31  2200.98  2288.43  2369.58
                             2370.44  4577.23  4580.81  4585.97  4595.53
                             4601.03  4614.53  4700.25  4707.69  4710.26
                             4733.38
 
 Zero-point correction=                           0.142335 (Hartree/Particle)
 Thermal correction to Energy=                    0.148595
 Thermal correction to Enthalpy=                  0.149539
 Thermal correction to Gibbs Free Energy=         0.112924
 Sum of electronic and zero-point Energies=           -234.314508
 Sum of electronic and thermal Energies=              -234.308247
 Sum of electronic and thermal Enthalpies=            -234.307303
 Sum of electronic and thermal Free Energies=         -234.343918
 
                     E (Thermal)             CV                S
                      KCal/Mol        Cal/Mol-Kelvin    Cal/Mol-Kelvin
 Total                   93.245             24.261             77.063
 Electronic               0.000              0.000              0.000
 Translational            0.889              2.981             39.129
 Rotational               0.889              2.981             26.626
 Vibrational             91.467             18.299             11.308
 Vibration     1          0.615              1.912              2.792
 Vibration     2          0.648              1.808              1.942
 Vibration     3          0.688              1.688              1.460
 Vibration     4          0.776              1.444              0.920
 Vibration     5          0.782              1.428              0.893
 Vibration     6          0.853              1.255              0.663
 Vibration     7          0.961              1.026              0.445
                       Q            Log10(Q)             Ln(Q)
 Total Bot       0.114447D-51        -51.941395       -119.599482
 Total V=0       0.337212D+14         13.527903         31.149148
 Vib (Bot)       0.266230D-64        -64.574744       -148.688842
 Vib (Bot)    1  0.144327D+01          0.159349          0.366915
 Vib (Bot)    2  0.890080D+00         -0.050571         -0.116444
 Vib (Bot)    3  0.652949D+00         -0.185120         -0.426256
 Vib (Bot)    4  0.428846D+00         -0.367699         -0.846657
 Vib (Bot)    5  0.418556D+00         -0.378246         -0.870944
 Vib (Bot)    6  0.330691D+00         -0.480578         -1.106571
 Vib (Bot)    7  0.246912D+00         -0.607459         -1.398725
 Vib (V=0)       0.784430D+01          0.894554          2.059788
 Vib (V=0)    1  0.202743D+01          0.306946          0.706769
 Vib (V=0)    2  0.152090D+01          0.182102          0.419304
 Vib (V=0)    3  0.132240D+01          0.121363          0.279449
 Vib (V=0)    4  0.115872D+01          0.063978          0.147314
 Vib (V=0)    5  0.115207D+01          0.061477          0.141556
 Vib (V=0)    6  0.109946D+01          0.041181          0.094822
 Vib (V=0)    7  0.105764D+01          0.024339          0.056043
 Electronic      0.100000D+01          0.000000          0.000000
 Translational   0.292278D+08          7.465796         17.190631
 Rotational      0.147080D+06          5.167553         11.898730
 ***** Axes restored to original set *****
 -------------------------------------------------------------------
 Center     Atomic                   Forces (Hartrees/Bohr)
 Number     Number              X              Y              Z
 -------------------------------------------------------------------
      1        6          -0.000010509    0.000003833    0.000012470
      2        6           0.000001685   -0.000000648   -0.000003453
      3        6          -0.000009202   -0.000001603   -0.000014266
      4        6           0.000025341    0.000024163    0.000011246
      5        6          -0.000001376    0.000000068   -0.000010241
      6        6          -0.000015114   -0.000027641    0.000012380
      7        1           0.000001568    0.000001867   -0.000010195
      8        1           0.000001869   -0.000001453    0.000002803
      9        1           0.000001046   -0.000002895   -0.000000337
     10        1           0.000001517   -0.000000109   -0.000002061
     11        1          -0.000002641   -0.000003480   -0.000001726
     12        1          -0.000002696    0.000000240    0.000000879
     13        1           0.000010765    0.000012923   -0.000002612
     14        1          -0.000004467   -0.000004513    0.000001448
     15        1          -0.000003452   -0.000004533   -0.000000422
     16        1           0.000005666    0.000003780    0.000004086
 -------------------------------------------------------------------
 Cartesian Forces:  Max     0.000027641 RMS     0.000008885
 FormGI is forming the generalized inverse of G from B-inverse, IUseBI=4.

 GradGradGradGradGradGradGradGradGradGradGradGradGradGradGradGradGradGrad
 Berny optimization.
 Internal  Forces:  Max     0.000016440 RMS     0.000003362
 Search for a saddle point.
 Step number   1 out of a maximum of    2
 All quantities printed in internal units (Hartrees-Bohrs-Radians)
 Swapping is turned off.
 Second derivative matrix not updated -- analytic derivatives used.
 ITU=  0
     Eigenvalues ---   -0.03583   0.00152   0.00703   0.00725   0.00979
     Eigenvalues ---    0.01434   0.01488   0.01755   0.01897   0.02114
     Eigenvalues ---    0.02229   0.02256   0.02473   0.02726   0.02768
     Eigenvalues ---    0.03550   0.04228   0.04482   0.05037   0.05113
     Eigenvalues ---    0.05673   0.05718   0.06127   0.07019   0.10685
     Eigenvalues ---    0.12499   0.12510   0.15978   0.31344   0.32070
     Eigenvalues ---    0.33898   0.34741   0.35909   0.36087   0.36636
     Eigenvalues ---    0.36652   0.36842   0.37154   0.37289   0.47144
     Eigenvalues ---    0.47458   0.52366
 Eigenvectors required to have negative eigenvalues:
                          R2        R9        D46       D48       D3
   1                    0.53964   0.53932   0.17040  -0.17040  -0.16325
                          D25       D4        D28       A31       A32
   1                    0.16320  -0.13919   0.13913   0.12855   0.12844
 Angle between quadratic step and forces=  68.63 degrees.
 Linear search not attempted -- option 19 set.
 Iteration  1 RMS(Cart)=  0.00012934 RMS(Int)=  0.00000002
 Iteration  2 RMS(Cart)=  0.00000001 RMS(Int)=  0.00000001
 Variable       Old X    -DE/DX   Delta X   Delta X   Delta X     New X
                                 (Linear)    (Quad)   (Total)
    R1        2.60076  -0.00001   0.00000  -0.00008  -0.00008   2.60068
    R2        4.27841   0.00000   0.00000   0.00085   0.00085   4.27927
    R3        2.04891  -0.00000   0.00000  -0.00002  -0.00002   2.04889
    R4        2.05366  -0.00000   0.00000  -0.00001  -0.00001   2.05365
    R5        2.65877  -0.00000   0.00000   0.00003   0.00003   2.65880
    R6        2.05605  -0.00000   0.00000  -0.00000  -0.00000   2.05605
    R7        2.60067   0.00002   0.00000   0.00001   0.00001   2.60068
    R8        2.05605  -0.00000   0.00000  -0.00001  -0.00001   2.05605
    R9        4.27957  -0.00002   0.00000  -0.00041  -0.00041   4.27916
   R10        2.05365  -0.00000   0.00000  -0.00000  -0.00000   2.05365
   R11        2.04890  -0.00000   0.00000  -0.00000  -0.00000   2.04889
   R12        2.60635   0.00001   0.00000  -0.00003  -0.00003   2.60631
   R13        2.05222  -0.00000   0.00000  -0.00001  -0.00001   2.05222
   R14        2.04815  -0.00000   0.00000  -0.00001  -0.00001   2.04814
   R15        2.05221  -0.00000   0.00000   0.00001   0.00001   2.05222
   R16        2.04814  -0.00000   0.00000   0.00000   0.00000   2.04814
   R17        4.47649  -0.00000   0.00000  -0.00013  -0.00013   4.47635
   R18        4.47613  -0.00000   0.00000   0.00020   0.00020   4.47633
    A1        1.77638   0.00000   0.00000  -0.00009  -0.00009   1.77629
    A2        2.10911   0.00000   0.00000   0.00012   0.00012   2.10923
    A3        2.09547  -0.00000   0.00000   0.00003   0.00003   2.09550
    A4        1.47639  -0.00000   0.00000  -0.00028  -0.00028   1.47612
    A5        1.81687   0.00000   0.00000   0.00007   0.00007   1.81694
    A6        2.00175  -0.00000   0.00000  -0.00003  -0.00003   2.00172
    A7        2.12617   0.00000   0.00000   0.00005   0.00005   2.12622
    A8        2.07243  -0.00000   0.00000  -0.00002  -0.00002   2.07241
    A9        2.06000   0.00000   0.00000  -0.00001  -0.00001   2.06000
   A10        2.12620   0.00000   0.00000   0.00002   0.00002   2.12622
   A11        2.06003  -0.00000   0.00000  -0.00004  -0.00004   2.06000
   A12        2.07241   0.00000   0.00000  -0.00000  -0.00000   2.07241
   A13        1.77616   0.00000   0.00000   0.00014   0.00014   1.77630
   A14        2.09552   0.00000   0.00000  -0.00003  -0.00003   2.09549
   A15        2.10926  -0.00000   0.00000  -0.00004  -0.00004   2.10922
   A16        1.81693   0.00000   0.00000  -0.00000  -0.00000   1.81693
   A17        1.47610   0.00000   0.00000   0.00005   0.00005   1.47615
   A18        2.00173   0.00000   0.00000  -0.00000  -0.00000   2.00172
   A19        1.90359   0.00000   0.00000  -0.00010  -0.00010   1.90349
   A20        1.58001   0.00000   0.00000  -0.00012  -0.00012   1.57988
   A21        1.58804   0.00000   0.00000  -0.00012  -0.00012   1.58791
   A22        2.09424   0.00000   0.00000   0.00004   0.00004   2.09428
   A23        2.09553  -0.00000   0.00000   0.00005   0.00005   2.09558
   A24        2.01445   0.00000   0.00000   0.00005   0.00005   2.01450
   A25        1.90340   0.00000   0.00000   0.00011   0.00011   1.90351
   A26        1.57964   0.00001   0.00000   0.00023   0.00023   1.57987
   A27        1.58804  -0.00000   0.00000  -0.00010  -0.00010   1.58794
   A28        2.09434  -0.00000   0.00000  -0.00006  -0.00006   2.09428
   A29        2.09559  -0.00000   0.00000  -0.00002  -0.00002   2.09557
   A30        2.01452  -0.00000   0.00000  -0.00003  -0.00003   2.01449
   A31        1.48572   0.00000   0.00000   0.00035   0.00035   1.48607
   A32        1.48608  -0.00000   0.00000  -0.00007  -0.00007   1.48601
   A33        1.38506  -0.00001   0.00000  -0.00024  -0.00024   1.38482
   A34        1.38466  -0.00000   0.00000   0.00018   0.00018   1.38484
    D1       -1.02173   0.00000   0.00000   0.00013   0.00013  -1.02159
    D2        1.87874   0.00000   0.00000   0.00023   0.00023   1.87898
    D3        0.56144   0.00000   0.00000  -0.00022  -0.00022   0.56122
    D4       -2.82128   0.00000   0.00000  -0.00012  -0.00012  -2.82140
    D5       -3.01301   0.00000   0.00000   0.00010   0.00010  -3.01291
    D6       -0.11254   0.00000   0.00000   0.00020   0.00020  -0.11234
    D7        0.87389   0.00000   0.00000  -0.00012  -0.00012   0.87377
    D8        3.00576   0.00000   0.00000  -0.00015  -0.00015   3.00561
    D9       -1.26272   0.00000   0.00000  -0.00010  -0.00010  -1.26282
   D10       -1.22781  -0.00000   0.00000  -0.00019  -0.00019  -1.22800
   D11        0.90406  -0.00000   0.00000  -0.00022  -0.00022   0.90384
   D12        2.91877  -0.00000   0.00000  -0.00017  -0.00017   2.91860
   D13        3.06338   0.00000   0.00000  -0.00010  -0.00010   3.06328
   D14       -1.08794   0.00000   0.00000  -0.00013  -0.00013  -1.08807
   D15        0.92677   0.00000   0.00000  -0.00008  -0.00008   0.92669
   D16       -2.12405  -0.00000   0.00000   0.00034   0.00034  -2.12371
   D17       -0.36994   0.00000   0.00000   0.00007   0.00007  -0.36987
   D18        1.42860   0.00000   0.00000   0.00002   0.00002   1.42861
   D19       -0.00008   0.00000   0.00000   0.00010   0.00010   0.00002
   D20        2.90219   0.00000   0.00000   0.00003   0.00003   2.90222
   D21       -2.90220   0.00000   0.00000  -0.00000  -0.00000  -2.90220
   D22        0.00007   0.00000   0.00000  -0.00007  -0.00007   0.00000
   D23        1.02158  -0.00000   0.00000   0.00003   0.00003   1.02161
   D24        3.01281   0.00000   0.00000   0.00011   0.00011   3.01292
   D25       -0.56114  -0.00000   0.00000  -0.00010  -0.00010  -0.56124
   D26       -1.87905   0.00000   0.00000   0.00010   0.00010  -1.87895
   D27        0.11218   0.00000   0.00000   0.00018   0.00018   0.11236
   D28        2.82142  -0.00000   0.00000  -0.00003  -0.00003   2.82139
   D29       -0.87384   0.00000   0.00000   0.00000   0.00000  -0.87384
   D30       -3.00562   0.00000   0.00000  -0.00006  -0.00006  -3.00567
   D31        1.26279   0.00000   0.00000  -0.00003  -0.00003   1.26276
   D32       -3.06332   0.00000   0.00000  -0.00002  -0.00002  -3.06335
   D33        1.08809   0.00000   0.00000  -0.00008  -0.00008   1.08801
   D34       -0.92669   0.00000   0.00000  -0.00006  -0.00006  -0.92675
   D35        1.22796   0.00000   0.00000  -0.00003  -0.00003   1.22793
   D36       -0.90382  -0.00000   0.00000  -0.00009  -0.00009  -0.90391
   D37       -2.91859   0.00000   0.00000  -0.00007  -0.00007  -2.91866
   D38        2.12357   0.00000   0.00000   0.00020   0.00020   2.12377
   D39        0.36988   0.00000   0.00000   0.00001   0.00001   0.36990
   D40       -1.42859  -0.00000   0.00000  -0.00000  -0.00000  -1.42859
   D41       -0.00002  -0.00000   0.00000   0.00005   0.00005   0.00004
   D42        1.78258   0.00001   0.00000   0.00038   0.00038   1.78296
   D43       -1.79372   0.00000   0.00000   0.00011   0.00011  -1.79361
   D44       -1.78315  -0.00000   0.00000   0.00025   0.00025  -1.78289
   D45       -0.00055   0.00001   0.00000   0.00058   0.00058   0.00003
   D46        2.70633   0.00000   0.00000   0.00031   0.00031   2.70664
   D47        1.79378   0.00000   0.00000  -0.00014  -0.00014   1.79364
   D48       -2.70681   0.00001   0.00000   0.00019   0.00019  -2.70662
   D49        0.00008   0.00000   0.00000  -0.00008  -0.00008  -0.00000
   D50       -0.37296   0.00000   0.00000   0.00008   0.00008  -0.37288
   D51        1.59036   0.00000   0.00000  -0.00010  -0.00010   1.59026
   D52       -1.96723  -0.00000   0.00000   0.00028   0.00028  -1.96695
   D53        0.37288   0.00000   0.00000   0.00003   0.00003   0.37291
   D54       -1.59001  -0.00000   0.00000  -0.00023  -0.00023  -1.59024
   D55        1.96697   0.00000   0.00000   0.00003   0.00003   1.96700
   D56        0.86887  -0.00000   0.00000  -0.00004  -0.00004   0.86883
   D57       -0.86891   0.00000   0.00000   0.00002   0.00002  -0.86888
         Item               Value     Threshold  Converged?
 Maximum Force            0.000016     0.000450     YES
 RMS     Force            0.000003     0.000300     YES
 Maximum Displacement     0.000430     0.001800     YES
 RMS     Displacement     0.000129     0.001200     YES
 Predicted change in Energy=-1.099072D-08
 Optimization completed.
    -- Stationary point found.
                           ----------------------------
                           !   Optimized Parameters   !
                           ! (Angstroms and Degrees)  !
 --------------------------                            --------------------------
 ! Name  Definition              Value          Derivative Info.                !
 --------------------------------------------------------------------------------
 ! R1    R(1,2)                  1.3763         -DE/DX =    0.0                 !
 ! R2    R(1,5)                  2.264          -DE/DX =    0.0                 !
 ! R3    R(1,7)                  1.0842         -DE/DX =    0.0                 !
 ! R4    R(1,8)                  1.0867         -DE/DX =    0.0                 !
 ! R5    R(2,3)                  1.407          -DE/DX =    0.0                 !
 ! R6    R(2,9)                  1.088          -DE/DX =    0.0                 !
 ! R7    R(3,4)                  1.3762         -DE/DX =    0.0                 !
 ! R8    R(3,10)                 1.088          -DE/DX =    0.0                 !
 ! R9    R(4,6)                  2.2647         -DE/DX =    0.0                 !
 ! R10   R(4,11)                 1.0867         -DE/DX =    0.0                 !
 ! R11   R(4,12)                 1.0842         -DE/DX =    0.0                 !
 ! R12   R(5,6)                  1.3792         -DE/DX =    0.0                 !
 ! R13   R(5,15)                 1.086          -DE/DX =    0.0                 !
 ! R14   R(5,16)                 1.0838         -DE/DX =    0.0                 !
 ! R15   R(6,13)                 1.086          -DE/DX =    0.0                 !
 ! R16   R(6,14)                 1.0838         -DE/DX =    0.0                 !
 ! R17   R(7,15)                 2.3689         -DE/DX =    0.0                 !
 ! R18   R(12,13)                2.3687         -DE/DX =    0.0                 !
 ! A1    A(2,1,5)              101.779          -DE/DX =    0.0                 !
 ! A2    A(2,1,7)              120.843          -DE/DX =    0.0                 !
 ! A3    A(2,1,8)              120.0613         -DE/DX =    0.0                 !
 ! A4    A(5,1,7)               84.5912         -DE/DX =    0.0                 !
 ! A5    A(5,1,8)              104.0989         -DE/DX =    0.0                 !
 ! A6    A(7,1,8)              114.6917         -DE/DX =    0.0                 !
 ! A7    A(1,2,3)              121.8206         -DE/DX =    0.0                 !
 ! A8    A(1,2,9)              118.7415         -DE/DX =    0.0                 !
 ! A9    A(3,2,9)              118.0296         -DE/DX =    0.0                 !
 ! A10   A(2,3,4)              121.822          -DE/DX =    0.0                 !
 ! A11   A(2,3,10)             118.0311         -DE/DX =    0.0                 !
 ! A12   A(4,3,10)             118.7404         -DE/DX =    0.0                 !
 ! A13   A(3,4,6)              101.7666         -DE/DX =    0.0                 !
 ! A14   A(3,4,11)             120.0646         -DE/DX =    0.0                 !
 ! A15   A(3,4,12)             120.8518         -DE/DX =    0.0                 !
 ! A16   A(6,4,11)             104.1026         -DE/DX =    0.0                 !
 ! A17   A(6,4,12)              84.5743         -DE/DX =    0.0                 !
 ! A18   A(11,4,12)            114.6904         -DE/DX =    0.0                 !
 ! A19   A(1,5,6)              109.0676         -DE/DX =    0.0                 !
 ! A20   A(1,5,15)              90.5277         -DE/DX =    0.0                 !
 ! A21   A(1,5,16)              90.9878         -DE/DX =    0.0                 !
 ! A22   A(6,5,15)             119.9913         -DE/DX =    0.0                 !
 ! A23   A(6,5,16)             120.0648         -DE/DX =    0.0                 !
 ! A24   A(15,5,16)            115.4192         -DE/DX =    0.0                 !
 ! A25   A(4,6,5)              109.0568         -DE/DX =    0.0                 !
 ! A26   A(4,6,13)              90.5069         -DE/DX =    0.0                 !
 ! A27   A(4,6,14)              90.9879         -DE/DX =    0.0                 !
 ! A28   A(5,6,13)             119.9967         -DE/DX =    0.0                 !
 ! A29   A(5,6,14)             120.0687         -DE/DX =    0.0                 !
 ! A30   A(13,6,14)            115.4233         -DE/DX =    0.0                 !
 ! A31   A(1,7,15)              85.1254         -DE/DX =    0.0                 !
 ! A32   A(4,12,13)             85.1463         -DE/DX =    0.0                 !
 ! A33   A(6,13,12)             79.358          -DE/DX =    0.0                 !
 ! A34   A(5,15,7)              79.3351         -DE/DX =    0.0                 !
 ! D1    D(5,1,2,3)            -58.5406         -DE/DX =    0.0                 !
 ! D2    D(5,1,2,9)            107.644          -DE/DX =    0.0                 !
 ! D3    D(7,1,2,3)             32.1682         -DE/DX =    0.0                 !
 ! D4    D(7,1,2,9)           -161.6472         -DE/DX =    0.0                 !
 ! D5    D(8,1,2,3)           -172.6325         -DE/DX =    0.0                 !
 ! D6    D(8,1,2,9)             -6.4478         -DE/DX =    0.0                 !
 ! D7    D(2,1,5,6)             50.0703         -DE/DX =    0.0                 !
 ! D8    D(2,1,5,15)           172.2172         -DE/DX =    0.0                 !
 ! D9    D(2,1,5,16)           -72.3483         -DE/DX =    0.0                 !
 ! D10   D(7,1,5,6)            -70.3483         -DE/DX =    0.0                 !
 ! D11   D(7,1,5,15)            51.7986         -DE/DX =    0.0                 !
 ! D12   D(7,1,5,16)           167.2331         -DE/DX =    0.0                 !
 ! D13   D(8,1,5,6)            175.5187         -DE/DX =    0.0                 !
 ! D14   D(8,1,5,15)           -62.3344         -DE/DX =    0.0                 !
 ! D15   D(8,1,5,16)            53.1001         -DE/DX =    0.0                 !
 ! D16   D(2,1,7,15)          -121.699          -DE/DX =    0.0                 !
 ! D17   D(5,1,7,15)           -21.1959         -DE/DX =    0.0                 !
 ! D18   D(8,1,7,15)            81.8526         -DE/DX =    0.0                 !
 ! D19   D(1,2,3,4)             -0.0046         -DE/DX =    0.0                 !
 ! D20   D(1,2,3,10)           166.283          -DE/DX =    0.0                 !
 ! D21   D(9,2,3,4)           -166.2836         -DE/DX =    0.0                 !
 ! D22   D(9,2,3,10)             0.004          -DE/DX =    0.0                 !
 ! D23   D(2,3,4,6)             58.5323         -DE/DX =    0.0                 !
 ! D24   D(2,3,4,11)           172.6214         -DE/DX =    0.0                 !
 ! D25   D(2,3,4,12)           -32.1509         -DE/DX =    0.0                 !
 ! D26   D(10,3,4,6)          -107.6614         -DE/DX =    0.0                 !
 ! D27   D(10,3,4,11)            6.4277         -DE/DX =    0.0                 !
 ! D28   D(10,3,4,12)          161.6554         -DE/DX =    0.0                 !
 ! D29   D(3,4,6,5)            -50.0675         -DE/DX =    0.0                 !
 ! D30   D(3,4,6,13)          -172.2092         -DE/DX =    0.0                 !
 ! D31   D(3,4,6,14)            72.3527         -DE/DX =    0.0                 !
 ! D32   D(11,4,6,5)          -175.5155         -DE/DX =    0.0                 !
 ! D33   D(11,4,6,13)           62.3428         -DE/DX =    0.0                 !
 ! D34   D(11,4,6,14)          -53.0953         -DE/DX =    0.0                 !
 ! D35   D(12,4,6,5)            70.3567         -DE/DX =    0.0                 !
 ! D36   D(12,4,6,13)          -51.785          -DE/DX =    0.0                 !
 ! D37   D(12,4,6,14)         -167.223          -DE/DX =    0.0                 !
 ! D38   D(3,4,12,13)          121.6716         -DE/DX =    0.0                 !
 ! D39   D(6,4,12,13)           21.1928         -DE/DX =    0.0                 !
 ! D40   D(11,4,12,13)         -81.8521         -DE/DX =    0.0                 !
 ! D41   D(1,5,6,4)             -0.0009         -DE/DX =    0.0                 !
 ! D42   D(1,5,6,13)           102.1343         -DE/DX =    0.0                 !
 ! D43   D(1,5,6,14)          -102.7727         -DE/DX =    0.0                 !
 ! D44   D(15,5,6,4)          -102.1667         -DE/DX =    0.0                 !
 ! D45   D(15,5,6,13)           -0.0315         -DE/DX =    0.0                 !
 ! D46   D(15,5,6,14)          155.0615         -DE/DX =    0.0                 !
 ! D47   D(16,5,6,4)           102.7762         -DE/DX =    0.0                 !
 ! D48   D(16,5,6,13)         -155.0887         -DE/DX =    0.0                 !
 ! D49   D(16,5,6,14)            0.0044         -DE/DX =    0.0                 !
 ! D50   D(1,5,15,7)           -21.3692         -DE/DX =    0.0                 !
 ! D51   D(6,5,15,7)            91.1207         -DE/DX =    0.0                 !
 ! D52   D(16,5,15,7)         -112.7139         -DE/DX =    0.0                 !
 ! D53   D(4,6,13,12)           21.3644         -DE/DX =    0.0                 !
 ! D54   D(5,6,13,12)          -91.101          -DE/DX =    0.0                 !
 ! D55   D(14,6,13,12)         112.6993         -DE/DX =    0.0                 !
 ! D56   D(1,7,15,5)            49.7825         -DE/DX =    0.0                 !
 ! D57   D(4,12,13,6)          -49.7847         -DE/DX =    0.0                 !
 --------------------------------------------------------------------------------
 GradGradGradGradGradGradGradGradGradGradGradGradGradGradGradGradGradGrad


 ----------------------------------------------------------------------

 Electric dipole moment (input orientation):
 (Debye = 10**-18 statcoulomb cm , SI units = C m)
                  (au)            (Debye)         (10**-30 SI)
   Tot        0.157243D+00      0.399672D+00      0.133316D+01
   x          0.134264D+00      0.341266D+00      0.113834D+01
   y          0.795728D-01      0.202254D+00      0.674646D+00
   z          0.191481D-01      0.486695D-01      0.162344D+00

 Dipole polarizability, Alpha (input orientation).
 (esu units = cm**3 , SI units = C**2 m**2 J**-1)
 Alpha(0;0):
               (au)            (10**-24 esu)      (10**-40 SI)
   iso        0.681935D+02      0.101052D+02      0.112436D+02
   aniso      0.296011D+02      0.438643D+01      0.488056D+01
   xx         0.747572D+02      0.110779D+02      0.123258D+02
   yx         0.593345D+01      0.879246D+00      0.978294D+00
   yy         0.499780D+02      0.740598D+01      0.824026D+01
   zx        -0.778064D+00     -0.115297D+00     -0.128285D+00
   zy         0.969771D+00      0.143705D+00      0.159894D+00
   zz         0.798451D+02      0.118318D+02      0.131647D+02

 ----------------------------------------------------------------------

 Dipole orientation:
     6          3.55303904          2.78180595         -2.87193826
     6          1.64523446          3.55001864         -4.46381410
     6         -0.73889071          2.37315888         -4.46478533
     6         -1.29032790          0.39094761         -2.87411309
     6          1.74233076          3.29110729          0.97081772
     6         -0.59485147          2.13758447          0.97040059
     1          3.72871090          0.81819845         -2.31388496
     1          5.29283349          3.86644669         -2.75287801
     1          1.83324302          5.35277640         -5.43441125
     1         -2.28366316          3.32047694         -5.43618387
     1         -3.20951523         -0.33038205         -2.75623153
     1          0.16110987         -0.94277005         -2.31508912
     1         -0.83560013          0.30682450          1.86591288
     1         -2.29610565          3.26594559          0.80483345
     1          3.34135276          2.36881913          1.86755648
     1          1.88136877          5.32785211          0.80570568

 Electric dipole moment (dipole orientation):
 (Debye = 10**-18 statcoulomb cm , SI units = C m)
                  (au)            (Debye)         (10**-30 SI)
   Tot        0.157243D+00      0.399672D+00      0.133316D+01
   x          0.000000D+00      0.000000D+00      0.000000D+00
   y          0.000000D+00      0.000000D+00      0.000000D+00
   z          0.157243D+00      0.399672D+00      0.133316D+01

 Dipole polarizability, Alpha (dipole orientation).
 (esu units = cm**3 , SI units = C**2 m**2 J**-1)
 Alpha(0;0):
               (au)            (10**-24 esu)      (10**-40 SI)
   iso        0.681935D+02      0.101052D+02      0.112436D+02
   aniso      0.296011D+02      0.438643D+01      0.488056D+01
   xx         0.742931D+02      0.110091D+02      0.122493D+02
   yx         0.114795D+02      0.170108D+01      0.189271D+01
   yy         0.567148D+02      0.840427D+01      0.935101D+01
   zx         0.347025D+01      0.514237D+00      0.572166D+00
   zy        -0.702176D+01     -0.104052D+01     -0.115773D+01
   zz         0.735724D+02      0.109023D+02      0.121305D+02

 ----------------------------------------------------------------------
 Unable to Open any file for archive entry.
 1\1\GINC-AVRUBIO-WS\Freq\RwB97XD\6-31G(d)\C6H10\AVRUBIO\11-Sep-2026\0\
 \#N Geom=AllCheck Guess=TCheck SCRF=Check GenChk RwB97XD/6-31G(d) Freq
 \\DA_ts\\0,1\C,-1.2065217723,-0.3572947122,-2.5354326095\C,-2.43580208
 88,-0.0809891075,-1.9816992938\C,-2.638001366,-0.0758794414,-0.5893538
 954\C,-1.6173700442,-0.3469927285,0.2931297254\C,0.0905745688,1.248826
 9654,-1.6060308959\C,-0.1074353065,1.2540465839,-0.2411101551\H,-0.521
 5742639,-1.0455457935,-2.0530138436\H,-1.0515255526,-0.237104114,-3.60
 43349664\H,-3.2069993294,0.3569694941,-2.6119558277\H,-3.5561799868,0.
 3657270235,-0.2076342216\H,-1.772592012,-0.2187997714,1.3610674134\H,-
 0.8240491591,-1.0377992701,0.0304835006\H,0.6257731852,0.7952959307,0.
 4156370139\H,-0.7273926602,2.0172761264,0.2147612764\H,0.9799659459,0.
 7863909538,-2.0237768212\H,-0.3734338682,2.0080223007,-2.2249143194\\V
 ersion=ES64L-G16RevC.01\State=1-A\HF=-234.4568424\RMSD=2.651e-09\RMSF=
 8.885e-06\ZeroPoint=0.1423346\Thermal=0.1485951\ETot=-234.3082473\HTot
 =-234.3073032\GTot=-234.3439184\Dipole=0.1342643,0.0795728,0.0191481\D
 ipoleDeriv=0.0770664,0.0144442,0.0184124,0.0148948,0.0136071,0.0508931
 ,0.0027766,-0.0324102,0.0798863,-0.0795226,-0.1799557,0.0172439,-0.096
 3754,-0.1511914,-0.2536592,0.0986654,-0.0202986,0.0153499,-0.0402164,-
 0.1783761,-0.0321466,-0.1652872,-0.1493911,0.2166673,-0.1140507,-0.030
 7368,-0.0251331,0.0829526,0.0042955,-0.0176622,0.028542,0.0132832,-0.0
 440144,-0.0018123,0.0358019,0.0738426,-0.0350769,-0.1000275,0.0555846,
 -0.1646702,-0.0677317,-0.0455907,-0.0795704,-0.0594637,0.0235611,-0.03
 7326,-0.1134853,-0.0727076,-0.1706707,-0.0673791,-0.0024572,0.0627174,
 0.0290019,0.0252354,0.0122181,0.0686135,-0.0253799,0.0515517,0.0080336
 ,0.0106798,-0.0543229,0.0614707,-0.0174293,0.0689255,0.0221156,-0.0003
 334,0.0139888,0.0781316,-0.0289082,0.0355742,0.0042164,-0.1140777,-0.0
 349473,0.0568779,-0.0644295,0.1024942,0.0830506,0.0805831,-0.07397,0.0
 334958,-0.0080741,-0.0703491,0.0645244,0.0454068,0.1216902,0.0823958,-
 0.0485167,0.0545699,-0.0163836,0.0279621,0.0637266,0.0227989,0.0529241
 ,0.0052919,0.0783412,0.030214,0.0171487,0.0008716,-0.1091142,-0.011757
 ,0.0835131,0.0264048,0.0529165,0.0077437,0.0043265,0.0554999,-0.039498
 4,0.0070389,0.0123046,0.067468,-0.0865634,0.055422,0.0420324,-0.003891
 6,-0.0690114,0.0032032,-0.0140843,0.0099887,0.0588303,0.0263185,0.0561
 844,-0.0069346,-0.0434047,-0.009659,-0.0495205,0.0049159,-0.0321436,0.
 0662497,0.0807575,0.0524704,0.0421787,0.0193876,0.0632912,0.0159833,0.
 030227,0.0141564,0.0421136,-0.0238302,0.0415565,-0.0061698,0.0576912,0
 .0121533,0.0642669,-0.0001065\Polar=74.7572211,5.9334494,49.9780186,-0
 .7780643,0.969771,79.8451157\Quadrupole=0.1003686,-1.7932172,1.6928486
 ,-2.5133844,-0.2267393,-0.3520983\PG=C01 [X(C6H10)]\NImag=1\\0.5633591
 7,-0.26503110,0.27355846,-0.12273376,-0.11564164,0.64904955,-0.3331697
 5,0.10920763,0.13603673,0.67515841,0.08246000,-0.08408713,-0.01735627,
 -0.19078700,0.22409950,0.06765057,-0.03493858,-0.16387511,-0.01990742,
 -0.05997670,0.67555975,0.01543063,0.00313935,0.03056594,-0.11795465,0.
 02627854,0.06369338,0.66395762,-0.01269793,0.00368881,-0.00884740,0.03
 248814,-0.07368375,-0.01888065,-0.20033540,0.22457936,0.08354860,0.019
 36405,-0.01807312,-0.00619773,0.02564085,-0.31240451,0.01806660,0.0064
 8880,0.68635273,-0.05523564,-0.02154094,-0.00007508,0.04381868,-0.0152
 0172,-0.06508860,-0.26379794,0.07365260,-0.09789696,0.50289767,-0.0210
 3659,-0.01219789,-0.00494461,0.00837110,0.00360528,-0.01795003,0.09378
 847,-0.08351319,0.06357945,-0.28664549,0.27464778,-0.01480779,-0.00119
 218,-0.00464323,-0.01226085,0.00452288,-0.04641240,-0.16642874,0.03922
 109,-0.23392017,0.08175556,0.03854943,0.70860030,0.02461589,0.02104501
 ,0.01283325,-0.02805969,-0.00296032,0.02281170,-0.00997773,-0.00100856
 ,-0.02042767,0.01325616,0.00772366,0.00533512,0.43985627,0.04612505,0.
 01270626,0.01553851,-0.02978563,0.00048626,0.02963420,-0.01023007,0.00
 629033,-0.03254801,0.02777199,0.01178395,0.00886451,-0.26397214,0.3525
 8613,0.07135387,0.04124299,0.00235082,-0.04617311,0.00641623,0.0485541
 1,-0.01983897,0.00877992,-0.05922445,0.06394026,0.03318911,0.00609732,
 -0.12353108,-0.13734898,0.66430038,0.03158132,0.01682949,0.00208836,-0
 .02493940,0.00177966,0.03060509,-0.02822868,-0.00131086,-0.04559122,0.
 04578419,0.03181011,-0.00020080,-0.10222046,0.01045432,0.00841846,0.38
 999856,0.02868417,0.01150167,-0.00078568,-0.01879428,0.00644527,0.0278
 7940,-0.01990613,0.00019085,-0.03644776,0.04810074,0.01232333,-0.00201
 515,0.02195930,-0.09328281,-0.03752957,-0.29184634,0.35419676,-0.05667
 597,-0.02977322,-0.01200814,0.03015063,-0.00910099,-0.04439910,0.02352
 941,-0.00666370,0.04904297,-0.05882198,-0.03368349,-0.01854072,0.07856
 429,0.03990362,-0.39601536,0.04456732,0.05919354,0.71270007,-0.1571133
 8,0.12838826,-0.07772747,-0.02012196,0.01844492,-0.01139706,-0.0017950
 2,-0.00210357,-0.00599851,0.00381473,0.00186711,0.00132243,-0.00292280
 ,-0.00908299,-0.00493787,-0.00172544,-0.00233833,0.00385389,0.17760985
 ,0.14363943,-0.15236346,0.09248671,-0.00565490,0.00183879,0.01019908,-
 0.00343210,-0.00155266,-0.00656678,0.00603123,0.00355942,0.00202835,-0
 .00508932,-0.01555792,-0.01023046,-0.00458255,-0.00441029,0.00747783,-
 0.13394517,0.16034088,-0.07376422,0.09155349,-0.11700729,0.00269890,-0
 .00798048,0.01432326,-0.00189317,-0.00020341,-0.00483299,0.00496409,-0
 .00105816,-0.00126667,-0.00269575,-0.00611295,-0.00369973,-0.00144332,
 -0.00237986,0.00214594,0.08741510,-0.09531659,0.12349483,-0.05699844,0
 .00517434,0.03610570,0.00122306,-0.00325687,0.03196748,-0.00471393,0.0
 0422843,0.00035336,-0.00062048,-0.00018664,-0.00137089,0.00084025,0.00
 114335,-0.00277107,-0.00031074,-0.00036615,-0.00014952,0.00400137,0.00
 122204,-0.01887178,0.05589743,0.00810095,-0.04365676,0.03607309,0.0004
 8676,0.00237286,-0.00461514,0.00165131,0.00677138,-0.00188564,0.001717
 57,-0.00077927,-0.00074477,0.00012555,0.00040101,-0.00662452,-0.001388
 17,-0.00152089,0.00108939,-0.00374626,0.00067072,0.01866724,-0.0055264
 0,0.03873409,0.04312731,0.03919413,-0.33766220,-0.00240974,0.00220213,
 -0.00723962,0.00234645,0.00113424,0.00075089,-0.00005968,-0.00041156,-
 0.00008122,0.00021848,0.00085286,-0.00086556,0.00010197,-0.00010866,-0
 .00014935,0.00294483,0.00001835,-0.00956420,-0.04607775,-0.04065827,0.
 35451952,-0.01504167,0.01510015,-0.01761726,-0.19766202,0.08466171,-0.
 11145314,0.00642576,-0.00231016,0.00357311,0.00248039,0.00273045,0.001
 66534,-0.00060215,-0.00058686,-0.00130113,-0.00066062,-0.00066864,0.00
 153285,-0.00272685,0.00172710,0.00292979,-0.00000328,-0.00195280,-0.00
 013954,0.20720261,0.00801238,0.00158641,0.00446617,0.08616234,-0.08476
 675,0.07427442,0.00122089,0.00176834,-0.00472531,0.00300301,0.00566362
 ,0.00093195,-0.00079659,-0.00160813,-0.00268174,-0.00124082,-0.0010078
 0,0.00229847,0.00442631,0.00553785,0.00154954,-0.00248807,-0.00421376,
 -0.00150914,-0.09695180,0.07887750,0.01146304,-0.00756219,0.00993259,-
 0.11230171,0.06972933,-0.15191638,-0.02488267,0.01327569,-0.01497530,0
 .00312297,-0.00048690,-0.00513898,0.00011387,0.00025777,0.00022673,0.0
 0036424,0.00020666,-0.00005677,0.00351853,0.00039313,-0.00003828,-0.00
 063360,-0.00095937,0.00070383,0.12077598,-0.07428806,0.16129583,0.0031
 7633,0.00248834,0.00078144,-0.00111468,0.00156801,0.00053244,-0.254775
 58,0.10174420,0.08010419,-0.01467763,0.01241472,0.01021858,-0.00009672
 ,-0.00059539,-0.00154216,-0.00086029,-0.00048269,0.00098469,-0.0001375
 0,-0.00029259,-0.00014730,-0.00017678,0.00008556,0.00000880,0.00002591
 ,-0.00185427,0.00005051,0.26913089,0.00314358,0.00566748,-0.00012316,0
 .00003796,0.00170539,0.00481062,0.10447409,-0.08561904,-0.04684151,0.0
 0884012,0.00163186,-0.00195597,-0.00054104,-0.00102986,-0.00255141,-0.
 00152893,-0.00159029,0.00235772,-0.00051131,-0.00055921,0.00037686,0.0
 0012554,0.00025477,0.00003302,-0.00177754,-0.00251207,-0.00051977,-0.1
 1490008,0.07973737,-0.00067879,0.00116124,-0.00583607,0.02898043,-0.01
 347792,-0.00737042,0.08094015,-0.04291406,-0.09396227,-0.01882574,0.01
 162123,0.00952143,-0.00037234,-0.00038536,-0.00060164,-0.00042527,-0.0
 0039861,0.00046970,-0.00014357,-0.00027806,0.00008056,0.00166171,0.000
 08614,-0.00048297,-0.00024447,0.00001627,0.00072613,-0.08785208,0.0438
 6881,0.09851547,-0.00096573,-0.00028816,0.00111041,-0.00352811,0.00437
 584,-0.00165556,0.00859435,-0.00270164,-0.02723995,-0.05806334,0.01646
 160,0.04666398,-0.00031156,-0.00038034,0.00010522,0.00000893,0.0013628
 2,0.00301860,0.00010698,-0.00068218,-0.00008390,0.00054693,0.00012848,
 0.00021006,0.00025441,0.00011976,-0.00144384,-0.00016211,-0.00281642,0
 .00039831,0.05488619,0.00143349,-0.00076917,0.00120747,0.00103327,0.00
 678226,0.00222292,-0.00079929,0.00238758,0.00447893,0.01832688,-0.0442
 0586,-0.03447316,-0.00102377,-0.00152823,-0.00142487,-0.00175692,0.000
 44908,0.00636795,-0.00068203,-0.00015323,-0.00000489,0.00012304,0.0003
 7769,0.00003351,0.00010816,0.00025420,-0.00006510,-0.00214997,-0.00420
 138,0.00040016,-0.01719431,0.03932615,-0.00021315,0.00034901,0.0002543
 9,-0.00362550,0.00006695,-0.00044270,0.00710967,-0.00317001,-0.0146269
 7,0.03962752,-0.03828599,-0.33604931,-0.00014259,0.00000934,-0.0001397
 1,0.00005259,-0.00049516,-0.00007330,0.00000711,0.00007076,0.00030122,
 -0.00002547,-0.00000038,-0.00007861,0.00020913,-0.00000434,-0.00091322
 ,-0.00009954,0.00077639,0.00084910,-0.04262503,0.03976841,0.35493070,0
 .00512626,0.00149166,0.00055800,-0.00419955,-0.00202658,0.00620799,-0.
 01968772,0.01543688,0.00118020,-0.19493634,0.14955964,0.05340767,-0.00
 076297,-0.00295691,-0.00469969,-0.00508278,-0.01041202,0.00461643,0.00
 049452,0.00019900,-0.00007750,0.00010016,-0.00065591,-0.00006190,-0.00
 019987,-0.00038286,0.00006334,-0.00074340,0.00466403,-0.00376253,-0.00
 143477,0.00171562,-0.00054635,0.22065636,0.00633398,0.00356266,-0.0002
 7317,-0.00513877,-0.00151119,0.00530747,-0.00258643,0.00183843,-0.0113
 0127,0.16440753,-0.15334660,-0.04731919,-0.00226986,-0.00445777,-0.008
 42418,-0.00777690,-0.01543841,0.00845595,0.00003555,0.00050534,0.00058
 123,-0.00063425,-0.00015556,-0.00025862,-0.00035961,-0.00056089,0.0001
 8835,0.00175238,0.00553252,0.00006457,0.00133795,0.00053226,0.00029484
 ,-0.15600753,0.16136087,-0.00311654,0.00150511,-0.00256188,0.00211866,
 -0.00041142,-0.00247098,-0.01276593,0.01299471,0.01389746,0.04933755,-
 0.05075663,-0.07820927,0.00060142,0.00165548,0.00122368,0.00234751,0.0
 0337159,-0.00163967,0.00140627,-0.00058415,-0.00399376,0.00003064,-0.0
 0018756,0.00031030,0.00006643,-0.00050166,0.00014432,-0.00315401,-0.00
 027746,-0.00201328,0.02125689,-0.01901164,-0.00398928,-0.05733507,0.05
 274667,0.07939587,-0.00350888,-0.00164224,0.00012316,0.00141639,-0.001
 10020,-0.00346713,0.00178566,-0.00115289,0.00327860,-0.00942603,-0.002
 12442,-0.00214269,0.00747908,-0.00102319,0.01116377,-0.17687516,0.1044
 4823,-0.12824438,0.00013572,0.00030052,-0.00003809,0.00005879,0.000097
 67,0.00000245,0.00013604,0.00019412,0.00008788,0.00015976,0.00012966,0
 .00014547,-0.00027963,0.00013781,0.00028104,0.00032507,0.00010240,-0.0
 0071210,0.18543131,-0.00575264,-0.00276317,-0.00098898,0.00276292,-0.0
 0140887,-0.00521378,0.00190347,-0.00128374,0.00513466,-0.01276192,-0.0
 0457714,-0.00338369,0.00097560,0.00539928,0.00685450,0.10290565,-0.090
 29608,0.06253031,0.00035362,0.00054575,0.00014390,0.00001200,-0.000015
 35,-0.00006410,0.00016811,0.00026834,-0.00000408,0.00010250,0.00047391
 ,0.00012708,0.00032689,0.00038636,0.00015545,-0.00123203,0.00055594,-0
 .00055106,-0.10203016,0.09770910,0.00041930,0.00053456,-0.00058903,0.0
 0013349,0.00020845,0.00045582,-0.00008925,-0.00026871,-0.00053286,0.00
 082397,0.00084488,0.00100877,-0.02207552,0.01594832,-0.01558737,-0.118
 38986,0.06911695,-0.15826426,-0.00007519,-0.00010565,-0.00004110,-0.00
 007164,-0.00018376,0.00004154,0.00000806,-0.00003936,-0.00002374,-0.00
 000820,-0.00008235,0.00004307,0.00006739,-0.00007135,-0.00008434,0.000
 13870,-0.00029599,0.00007674,0.12764779,-0.07958889,0.16772638,-0.0047
 7414,-0.00240882,-0.00132021,0.00281291,-0.00010062,-0.00382964,0.0027
 4298,-0.00292243,0.00550930,-0.00744756,-0.01104204,-0.00243202,0.0016
 8407,0.00477213,0.00697413,-0.13747032,0.13851713,0.06051873,0.0003423
 6,0.00062787,0.00016821,-0.00008168,0.00001403,-0.00010096,0.00010428,
 0.00015602,-0.00007464,0.00004747,0.00034135,0.00011240,0.00043467,0.0
 0073355,-0.00006799,-0.00013513,-0.00009728,-0.00009641,-0.00888754,0.
 01266003,0.01030153,0.14906797,-0.00405432,-0.00173025,-0.00046057,0.0
 0246936,-0.00034480,-0.00407425,0.00246055,-0.00017697,0.00520803,-0.0
 0587258,-0.01009472,-0.00165475,0.00041609,0.00603886,0.00803336,0.141
 99618,-0.18893514,-0.09628381,0.00038083,0.00069124,0.00023852,-0.0000
 8633,0.00011064,-0.00004682,0.00009353,0.00014183,-0.00000502,-0.00013
 023,0.00009695,0.00002864,0.00005197,0.00026400,0.00037925,-0.00020729
 ,0.00034616,0.00017489,0.00448460,-0.00625185,-0.00498714,-0.14096282,
 0.19754849,0.00032868,0.00013346,-0.00068570,0.00005087,0.00011692,0.0
 0010651,-0.00057438,-0.00032539,-0.00021628,-0.00018164,0.00156054,0.0
 0072977,0.02086465,-0.02224940,-0.00959134,0.06559717,-0.08642949,-0.1
 0624026,0.00009838,0.00014038,0.00000891,-0.00008543,-0.00021226,0.000
 00718,-0.00006261,-0.00002186,-0.00004830,-0.00001210,-0.00002665,0.00
 009844,0.00009942,0.00016049,-0.00004687,0.00018846,0.00001278,-0.0001
 3705,-0.00969765,0.01451607,0.00938846,-0.07641590,0.09291670,0.110489
 62,-0.00896367,-0.00179820,-0.00079524,0.00247099,-0.00120413,-0.00238
 580,0.00043003,-0.00097279,0.00347333,-0.00313128,-0.00142732,-0.00086
 608,-0.24242593,0.12064625,0.10232876,0.00264931,0.00350885,-0.0057963
 4,0.00014845,0.00002104,0.00073422,-0.00016824,0.00011098,-0.00030707,
 0.00018798,0.00010056,-0.00010333,0.00014966,0.00017499,-0.00003779,0.
 00003837,0.00004107,-0.00000349,0.00009120,0.00025965,0.00007528,-0.00
 121799,-0.00326184,0.00043838,0.00355364,0.00218126,-0.00023843,0.2534
 1550,-0.01323448,-0.00457851,-0.00034756,0.00329071,-0.00132058,-0.004
 38168,0.00116363,-0.00137169,0.00580477,-0.00580520,-0.00276760,-0.000
 67452,0.11721346,-0.09095340,-0.03075627,0.00309747,0.00522748,-0.0064
 1837,-0.00133641,0.00056344,0.00017645,0.00035788,0.00038719,-0.000059
 82,0.00013508,0.00047424,-0.00009581,0.00016058,0.00026942,0.00004955,
 -0.00000655,-0.00001377,0.00006556,0.00038111,0.00054703,-0.00004121,-
 0.00343959,-0.00306977,0.00011148,0.00315865,0.00433046,-0.00058339,-0
 .12129483,0.09857753,-0.00368197,-0.00137242,0.00053790,0.00095498,-0.
 00007118,-0.00118197,-0.00015060,-0.00049196,0.00140284,-0.00112917,-0
 .00096447,-0.00096138,0.09248442,-0.03663833,-0.09202836,0.02744665,-0
 .01572305,-0.01059205,-0.00010665,0.00031115,0.00024952,-0.00009505,0.
 00010363,-0.00019533,0.00005018,0.00011226,0.00001492,0.00004225,0.000
 09073,-0.00003798,0.00007107,0.00020441,0.00005979,0.00011143,0.000182
 37,0.00000309,-0.00116464,-0.00105122,0.00131588,0.00176300,0.00176549
 ,-0.00522545,-0.10124851,0.04737111,0.09886290,-0.00751830,-0.01015479
 ,0.00006602,0.00384938,-0.00293126,-0.00428431,0.00156422,-0.00003404,
 0.00426473,-0.00471559,-0.00226435,0.00014116,-0.10035171,0.10770046,-
 0.05948939,0.00835158,-0.00176669,-0.00164865,-0.00011101,-0.00008942,
 0.00010472,0.00040558,0.00075068,0.00019630,0.00007908,0.00031902,-0.0
 0012057,0.00005465,0.00014401,0.00010412,-0.00012559,-0.00004660,0.000
 06204,0.00038895,0.00064120,-0.00006059,0.00326740,0.00286780,0.000731
 04,-0.00199396,-0.00322079,0.00004052,-0.00722803,0.01615848,-0.015347
 37,0.10408335,-0.00612597,-0.01012540,-0.00000291,0.00385040,-0.000212
 55,-0.00429729,0.00120912,-0.00031405,0.00461673,-0.00402383,-0.001732
 97,-0.00070482,0.10820292,-0.18727398,0.13305587,0.00255861,0.00614725
 ,-0.00775122,-0.00015053,0.00034332,-0.00023088,0.00015808,0.00026125,
 -0.00035125,-0.00011689,0.00009708,-0.00006463,0.00008894,0.00014218,0
 .00003031,-0.00009571,0.00011205,0.00001991,0.00043320,0.00068920,-0.0
 0012567,0.00261767,0.00432727,-0.00114144,-0.00344674,-0.00203492,0.00
 029110,0.00291445,-0.00630147,0.00617148,-0.10807371,0.19587573,-0.002
 21920,-0.00455781,0.00081652,0.00175137,-0.00052878,-0.00128625,0.0003
 7211,-0.00012918,0.00132203,-0.00149308,-0.00080283,-0.00073422,-0.064
 58224,0.12261840,-0.14499951,-0.01553889,0.02254486,-0.01637970,-0.000
 18023,-0.00004404,-0.00016021,0.00003330,0.00005218,-0.00001418,0.0000
 0728,0.00012239,0.00006661,0.00009248,0.00006413,0.00000075,0.00004693
 ,0.00020678,0.00004911,0.00001082,0.00003819,-0.00003628,0.00273653,0.
 00138384,-0.00493397,-0.00100952,-0.00123253,0.00136237,0.00473211,-0.
 01022029,0.00777568,0.07524023,-0.12951531,0.15715126\\0.00001051,-0.0
 0000383,-0.00001247,-0.00000168,0.00000065,0.00000345,0.00000920,0.000
 00160,0.00001427,-0.00002534,-0.00002416,-0.00001125,0.00000138,-0.000
 00007,0.00001024,0.00001511,0.00002764,-0.00001238,-0.00000157,-0.0000
 0187,0.00001020,-0.00000187,0.00000145,-0.00000280,-0.00000105,0.00000
 289,0.00000034,-0.00000152,0.00000011,0.00000206,0.00000264,0.00000348
 ,0.00000173,0.00000270,-0.00000024,-0.00000088,-0.00001077,-0.00001292
 ,0.00000261,0.00000447,0.00000451,-0.00000145,0.00000345,0.00000453,0.
 00000042,-0.00000567,-0.00000378,-0.00000409\\\@
 The archive entry for this job was punched.


 THE MORE POWERFUL THE METHOD, THE MORE CATASTROPHIC THE ERRORS.
     -- M.D. KAMEN
 Job cpu time:       0 days  0 hours  5 minutes  6.6 seconds.
 Elapsed time:       0 days  0 hours  0 minutes 12.9 seconds.
 File lengths (MBytes):  RWF=     27 Int=      0 D2E=      0 Chk=      3 Scr=      1
 Normal termination of Gaussian 16 at Fri Sep 11 05:35:07 2026.
